.Version 9.2.2 of ABINIT

 ABINIT is a project of the Universite Catholique de Louvain,
 Corning Inc. and other collaborators, see ~abinit/doc/developers/contributors.txt .
 acknowledgments of the ABINIT effort.

.Starting date : Sun 17 Mar 2024.
- ( at 00h25 )

- The starting date is more than 3 years after the initial release
- of this version of ABINIT, namely Nov 2020.
- This version of ABINIT is not supported anymore.
- Action: please, switch to a more recent version of ABINIT.
- input  file    -> Cs2TiI6.in
- output file    -> Cs2TiI6.out
- root for input  files -> Cs2TiI6i
- root for output files -> Cs2TiI6o

 Symmetries : space group P4 m m (# 99); Bravais tP (primitive tetrag.)
     intxc =       0    ionmov =       0      iscf =      17    lmnmax =       6
     lnmax =       6     mgfft =     240  mpssoang =       3    mqgrid =   11692
     natom =      16  nloc_mem =       1    nspden =       1   nspinor =       1
    nsppol =       1      nsym =       8    n1xccc =    2501    ntypat =       3
    occopt =       1   xclevel =       2
-    mband =         128        mffmem =           1         mkmem =           2
       mpw =       16864          nfft =      311040          nkpt =           6
  Rough estimation (10% accuracy) of disk space for files :

------------- Echo of variables that govern the present computation ------------
-
- outvars: echo of selected default values
-   iomode0 =  0 , fftalg0 =112 , wfoptalg0 =  0
-
- outvars: echo of global parameters not present in the input file
-  max_nthreads =    0
-
 -outvars: echo values of preprocessed input variables --------
            acell      7.7624316804E+00  7.7624316804E+00  5.4752990302E+01 Bohr
              amu      1.18710000E+02  7.89600000E+01  6.53900000E+01
           diemac      1.20000000E+01
             ecut      2.25000000E+01 Hartree
-          fftalg         112
             iscf          17
              ixc          11
              kpt      8.33333333E-02  8.33333333E-02  5.00000000E-01
                       2.50000000E-01  8.33333333E-02  5.00000000E-01
                       4.16666667E-01  8.33333333E-02  5.00000000E-01
                       2.50000000E-01  2.50000000E-01  5.00000000E-01
                       4.16666667E-01  2.50000000E-01  5.00000000E-01
                       4.16666667E-01  4.16666667E-01  5.00000000E-01
         kptrlatt        6    0    0      0    6    0      0    0    1
          kptrlen      4.65745901E+01
P           mkmem           2
            natom          16
            nband         128
            ngfft          36      36     240
             nkpt           6
            nstep         150
             nsym           8
           ntypat           3
              occ      2.000000  2.000000  2.000000  2.000000  2.000000  2.000000
                       2.000000  2.000000  2.000000  2.000000  2.000000  2.000000
                       2.000000  2.000000  2.000000  2.000000  2.000000  2.000000
                       2.000000  2.000000  2.000000  2.000000  2.000000  2.000000
                       2.000000  2.000000  2.000000  2.000000  2.000000  2.000000
                       2.000000  2.000000  2.000000  2.000000  2.000000  2.000000
                       2.000000  2.000000  2.000000  2.000000  2.000000  2.000000
                       2.000000  2.000000  2.000000  2.000000  2.000000  2.000000
                       2.000000  2.000000  2.000000  2.000000  2.000000  2.000000
                       2.000000  2.000000  2.000000  2.000000  2.000000  2.000000
                       2.000000  2.000000  2.000000  2.000000  2.000000  2.000000
                       2.000000  2.000000  2.000000  2.000000  2.000000  2.000000
                       2.000000  2.000000  2.000000  2.000000  2.000000  2.000000
                       2.000000  2.000000  2.000000  2.000000  2.000000  2.000000
                       2.000000  2.000000  2.000000  2.000000  2.000000  2.000000
                       2.000000  2.000000  2.000000  2.000000  2.000000  2.000000
                       2.000000  2.000000  2.000000  2.000000  2.000000  2.000000
                       2.000000  2.000000  2.000000  2.000000  2.000000  2.000000
                       2.000000  2.000000  2.000000  2.000000  2.000000  2.000000
                       2.000000  2.000000  2.000000  2.000000  2.000000  2.000000
                       2.000000  2.000000  2.000000  2.000000  2.000000  2.000000
                       0.000000  0.000000
           prtcif           1
            prtwf           0
           shiftk      5.00000000E-01  5.00000000E-01  5.00000000E-01
          spgroup          99
           symrel      1  0  0   0  1  0   0  0  1       1  0  0   0 -1  0   0  0  1
                      -1  0  0   0 -1  0   0  0  1      -1  0  0   0  1  0   0  0  1
                       0  1  0   1  0  0   0  0  1       0  1  0  -1  0  0   0  0  1
                       0 -1  0  -1  0  0   0  0  1       0 -1  0   1  0  0   0  0  1
            tnons      0.0000000  0.0000000  0.0000000     0.0000000 -0.0000000  0.0000000
                      -0.0000000 -0.0000000  0.0000000    -0.0000000  0.0000000  0.0000000
                       0.5000000  0.5000000  0.0000000     0.5000000  0.5000000  0.0000000
                       0.5000000  0.5000000  0.0000000     0.5000000  0.5000000  0.0000000
           toldfe      1.00000000E-06 Hartree
            typat      1  1  1  1  1  1  2  2  2  2  2  2  2  2  3  3
           vdw_xc           5
              wtk        0.11111    0.22222    0.22222    0.11111    0.22222    0.11111
           xangst      2.0538509642E+00 -1.0000005802E-10  4.6664681475E+00
                      -1.0000005802E-10  2.0538509642E+00  7.4160979620E+00
                       2.0538509642E+00 -1.0000005802E-10  1.0102196638E+01
                      -1.0000005802E-10  2.0538509642E+00  1.2851826453E+01
                       2.0538509642E+00 -1.0000005802E-10  1.5537925129E+01
                      -1.0000005802E-10  2.0538509642E+00  1.8287554943E+01
                      -1.0000005802E-10  2.0538509642E+00  4.6982333557E+00
                       2.0538509642E+00 -1.0000005802E-10  7.3919861282E+00
                      -1.0000005802E-10  2.0538509642E+00  1.0144465526E+01
                       2.0538509642E+00 -1.0000005802E-10  1.2833348659E+01
                      -1.0000005802E-10  2.0538509642E+00  1.5585828057E+01
                       2.0538509642E+00 -1.0000005802E-10  1.8274711190E+01
                       2.0538509642E+00 -1.0000005802E-10  2.5980923743E+01
                      -1.0000005802E-10  2.0538509642E+00  2.8974034570E+01
                       2.0538509642E+00  2.0538509642E+00  2.7477479156E+01
                      -1.0000005802E-10 -1.0000005802E-10  2.7477479156E+01
            xcart      3.8812158400E+00 -1.8897272293E-10  8.8183468067E+00
                      -1.8897272293E-10  3.8812158400E+00  1.4014394123E+01
                       3.8812158400E+00 -1.8897272293E-10  1.9090384987E+01
                      -1.8897272293E-10  3.8812158400E+00  2.4286432303E+01
                       3.8812158400E+00 -1.8897272293E-10  2.9362423167E+01
                      -1.8897272293E-10  3.8812158400E+00  3.4558470483E+01
                      -1.8897272293E-10  3.8812158400E+00  8.8783743507E+00
                       3.8812158400E+00 -1.8897272293E-10  1.3968829360E+01
                      -1.8897272293E-10  3.8812158400E+00  1.9170261609E+01
                       3.8812158400E+00 -1.8897272293E-10  2.4251514334E+01
                      -1.8897272293E-10  3.8812158400E+00  2.9452946582E+01
                       3.8812158400E+00 -1.8897272293E-10  3.4534199307E+01
                       3.8812158400E+00 -1.8897272293E-10  4.9096830554E+01
                      -1.8897272293E-10  3.8812158400E+00  5.4752990302E+01
                       3.8812158400E+00  3.8812158400E+00  5.1924910427E+01
                      -1.8897272293E-10 -1.8897272293E-10  5.1924910427E+01
             xred      4.9999999998E-01 -2.4344526395E-11  1.6105689859E-01
                      -2.4344526395E-11  4.9999999998E-01  2.5595668922E-01
                       4.9999999998E-01 -2.4344526395E-11  3.4866378770E-01
                      -2.4344526395E-11  4.9999999998E-01  4.4356357833E-01
                       4.9999999998E-01 -2.4344526395E-11  5.3627067681E-01
                      -2.4344526395E-11  4.9999999998E-01  6.3117046744E-01
                      -2.4344526395E-11  4.9999999998E-01  1.6215323221E-01
                       4.9999999998E-01 -2.4344526395E-11  2.5512450157E-01
                      -2.4344526395E-11  4.9999999998E-01  3.5012264175E-01
                       4.9999999998E-01 -2.4344526395E-11  4.4292584204E-01
                      -2.4344526395E-11  4.9999999998E-01  5.3792398222E-01
                       4.9999999998E-01 -2.4344526395E-11  6.3072718251E-01
                       4.9999999998E-01 -2.4344526395E-11  8.9669678830E-01
                      -2.4344526395E-11  4.9999999998E-01  1.0000000000E+00
                       4.9999999998E-01  4.9999999998E-01  9.4834839414E-01
                      -2.4344526395E-11 -2.4344526395E-11  9.4834839414E-01
            znucl       50.00000   34.00000   30.00000

 chkinp: Checking input parameters for consistency.

== DATASET  1 ==================================================================
-   mpi_nproc: 4, omp_nthreads: -1 (-1 if OMP is not activated)

--- !DatasetInfo
iteration_state: {dtset: 1, }
dimensions: {natom: 16, nkpt: 6, mband: 128, nsppol: 1, nspinor: 1, nspden: 1, mpw: 16864, }
cutoff_energies: {ecut:  22.5, pawecutdg:  -1.0, }
electrons: {nelect:   2.52000000E+02, charge:   0.00000000E+00, occopt:   1.00000000E+00, tsmear:   1.00000000E-02, }
meta: {optdriver: 0, ionmov: 0, optcell: 0, iscf: 17, paral_kgb: 0, }
...

 Real(R)+Recip(G) space primitive vectors, cartesian coordinates (Bohr,Bohr^-1):
 R(1)=  7.7624317  0.0000000  0.0000000  G(1)=  0.1288256  0.0000000  0.0000000
 R(2)=  0.0000000  7.7624317  0.0000000  G(2)=  0.0000000  0.1288256  0.0000000
 R(3)=  0.0000000  0.0000000 54.7529903  G(3)=  0.0000000  0.0000000  0.0182638
 Unit cell volume ucvol=  3.2991604E+03 bohr^3
 Angles (23,13,12)=  9.00000000E+01  9.00000000E+01  9.00000000E+01 degrees

 getcut: wavevector=  0.0000  0.0000  0.0000  ngfft=  36  36 240
         ecut(hartree)=     22.500   => boxcut(ratio)=   2.05280

--- Pseudopotential description ------------------------------------------------
- pspini: atom type   1  psp file is ../../../Psps_for_tests/ATOMICDATA_NC/Sn.psp8
- pspatm: opening atomic psp file    ../../../Psps_for_tests/ATOMICDATA_NC/Sn.psp8
- Sn    ONCVPSP  r_core=  2.27  2.62  1.86
- 50.00000  14.00000    150810                znucl, zion, pspdat
    8   11    2    4       600   0.00000      pspcod,pspxc,lmax,lloc,mmax,r2well
    5.99000000000000    6.50000000000000    0.00000000000000   rchrg,fchrg,qchrg
     nproj     2     2     2
     extension_switch     1
  pspatm : epsatm=   32.65190642
         --- l  ekb(1:nproj) -->
             0    5.462393    0.682281
             1    4.443814    0.825686
[...]
   11       0.000000000000      0.000000000000     -0.374744990971
   12       0.000000000000      0.000000000000     -0.701769404935
   13       0.000000000000      0.000000000000     -0.573126553169
   14       0.000000000000      0.000000000000      0.459292810647
   15       0.000000000000      0.000000000000     -0.535948197683
   16       0.000000000000      0.000000000000     -0.535948197683

 cartesian coordinates (angstrom) at end:
    1      2.05385096415820    -0.00000000010000     4.66646814753657
    2     -0.00000000010000     2.05385096415820     7.41609796202207
    3      2.05385096415820    -0.00000000010000    10.10219663818585
    4     -0.00000000010000     2.05385096415820    12.85182645267135
    5      2.05385096415820    -0.00000000010000    15.53792512883510
    6     -0.00000000010000     2.05385096415820    18.28755494332064
    7     -0.00000000010000     2.05385096415820     4.69823335569745
    8      2.05385096415820    -0.00000000010000     7.39198612818800
    9     -0.00000000010000     2.05385096415820    10.14446552598321
   10      2.05385096415820    -0.00000000010000    12.83334865925724
   11     -0.00000000010000     2.05385096415820    15.58582805705242
   12      2.05385096415820    -0.00000000010000    18.27471119032648
   13      2.05385096415820    -0.00000000010000    25.98092374312457
   14     -0.00000000010000     2.05385096415820    28.97403457015915
   15      2.05385096415820     2.05385096415820    27.47747915629152
   16     -0.00000000010000    -0.00000000010000    27.47747915629152

 cartesian forces (hartree/bohr) at end:
    1     -0.00000000000000    -0.00000000000000    -0.01478461292172
    2     -0.00000000000000    -0.00000000000000    -0.01478274541310
    3     -0.00000000000000    -0.00000000000000     0.00495503533932
    4     -0.00000000000000    -0.00000000000000    -0.00359702055927
    5     -0.00000000000000    -0.00000000000000     0.01609111926041
    6     -0.00000000000000    -0.00000000000000     0.01335294044754
    7     -0.00000000000000    -0.00000000000000    -0.01685150421063
    8     -0.00000000000000    -0.00000000000000    -0.01166268558266
    9     -0.00000000000000    -0.00000000000000     0.00014294813114
   10     -0.00000000000000    -0.00000000000000    -0.00634552089531
   11     -0.00000000000000    -0.00000000000000     0.00553841158282
   12     -0.00000000000000    -0.00000000000000     0.01151113402515
   13     -0.00000000000000    -0.00000000000000     0.00916162122128
   14     -0.00000000000000    -0.00000000000000    -0.00969432359771
   15     -0.00000000000000    -0.00000000000000     0.00848260158637
   16     -0.00000000000000    -0.00000000000000     0.00848260158637
 frms,max,avg= 6.2201159E-03 1.6851504E-02   0.000E+00  0.000E+00  1.306E-03 h/b

 cartesian forces (eV/Angstrom) at end:
    1     -0.00000000000000    -0.00000000000000    -0.76025529993318
    2     -0.00000000000000    -0.00000000000000    -0.76015926878716
    3     -0.00000000000000    -0.00000000000000     0.25479814033798
    4     -0.00000000000000    -0.00000000000000    -0.18496621850261
    5     -0.00000000000000    -0.00000000000000     0.82743855144223
    6     -0.00000000000000    -0.00000000000000     0.68663574749536
    7     -0.00000000000000    -0.00000000000000    -0.86653911440288
    8     -0.00000000000000    -0.00000000000000    -0.59971935502275
    9     -0.00000000000000    -0.00000000000000     0.00735068783270
   10     -0.00000000000000    -0.00000000000000    -0.32629977646638
   11     -0.00000000000000    -0.00000000000000     0.28479655039647
   12     -0.00000000000000    -0.00000000000000     0.59192626125567
   13     -0.00000000000000    -0.00000000000000     0.47110946538407
   14     -0.00000000000000    -0.00000000000000    -0.49850212064733
   15     -0.00000000000000    -0.00000000000000     0.43619287480891
   16     -0.00000000000000    -0.00000000000000     0.43619287480891
 frms,max,avg= 3.1985119E-01 8.6653911E-01   0.000E+00  0.000E+00  6.715E-02 e/A
 length scales=  7.762431680422  7.762431680422 54.752990302362 bohr
              =  4.107701928516  4.107701928516 28.974034570159 angstroms
 prteigrs : about to open file Cs2TiI6o_EIG
 Fermi (or HOMO) energy (hartree) =   0.13490   Average Vxc (hartree)=  -0.31635
 Eigenvalues (hartree) for nkpt=   6  k points:
 kpt#   1, nband=128, wtk=  0.11111, kpt=  0.0833  0.0833  0.5000 (reduced coord)
  -4.73213   -4.73212   -2.96942   -2.96904   -2.96734   -2.96679   -2.96673   -2.96662
  -1.68139   -1.68115   -1.68058   -1.68000   -1.67923   -1.67913   -1.67900   -1.67856
  -1.67785   -1.67717   -1.67679   -1.67607   -1.67587   -1.67511   -1.67464   -1.67459
  -1.67430   -1.67395   -1.67380   -1.67325   -1.67262   -1.67201   -1.67198   -1.67155
  -1.67089   -1.67080   -1.67031   -1.66924   -1.66600   -1.66589   -1.65249   -1.65239
  -1.65066   -1.64890   -1.64859   -1.64859   -1.64810   -1.64609   -1.64452   -1.64407
  -0.67469   -0.67298   -0.67295   -0.67280   -0.67213   -0.67200   -0.67180   -0.67172
  -0.67080   -0.67077   -0.66668   -0.66547   -0.66545   -0.66501   -0.66451   -0.66432
  -0.66416   -0.66409   -0.66403   -0.66363   -0.66362   -0.66351   -0.66342   -0.66210
  -0.66210   -0.66200   -0.66057   -0.66047   -0.66024   -0.66021   -0.42581   -0.41325
  -0.40220   -0.39725   -0.37777   -0.37678   -0.35846   -0.35372   -0.19483   -0.19220
  -0.19194   -0.19121   -0.19109   -0.17966   -0.17960   -0.17762   -0.17393   -0.17234
  -0.14716   -0.14432   -0.12092   -0.11838   -0.08677   -0.07974   -0.07588   -0.05955
  -0.04282   -0.03146   -0.02789   -0.01333   -0.00980   -0.00836   -0.00236   -0.00093
   0.01085    0.01662    0.02994    0.03022    0.03235    0.03649    0.04658    0.05318
   0.05979    0.06096    0.06506    0.06900    0.09810    0.11134    0.15700    0.17210
 prteigrs : prtvol=0 or 1, do not print more k-points.

--- !EnergyTerms
iteration_state     : {dtset: 1, }
comment             : Components of total free energy in Hartree
kinetic             :  1.05990703924552E+03
hartree             :  1.44011081667837E+03
xc                  : -3.67304412365867E+02
Ewald energy        : -1.00876546673181E+02
psp_core            :  3.70856935381221E+01
local_psp           : -3.29660830175542E+03
non_local_psp       : -6.22962846089297E+02
VdWaals_dft_d       : -1.86845189493614E-01
total_energy        : -1.85083540261125E+03
...

--- !EnergyTermsDC
iteration_state     : {dtset: 1, }
comment             : '"Double-counting" decomposition of free energy'
band_energy         : -2.38633557953569E+02
Ewald energy        : -1.00876546673181E+02
psp_core            :  3.70856935381221E+01
xc_dc               : -1.54822418940968E+03
VdWaals_dft_d       : -1.86845189493614E-01
total_energy_dc     : -1.85083544568781E+03
...

 Cartesian components of stress tensor (hartree/bohr^3)
  sigma(1 1)=  1.56792201E-02  sigma(3 2)=  0.00000000E+00
  sigma(2 2)=  1.56792201E-02  sigma(3 1)=  0.00000000E+00
  sigma(3 3)=  1.54891572E-02  sigma(2 1)=  0.00000000E+00

-Cartesian components of stress tensor (GPa)         [Pressure= -4.5943E+02 GPa]
- sigma(1 1)=  4.61298503E+02  sigma(3 2)=  0.00000000E+00
- sigma(2 2)=  4.61298503E+02  sigma(3 1)=  0.00000000E+00
- sigma(3 3)=  4.55706661E+02  sigma(2 1)=  0.00000000E+00

== END DATASET(S) ==============================================================

 -outvars: echo values of variables after computation  --------
            acell      7.7624316804E+00  7.7624316804E+00  5.4752990302E+01 Bohr
              amu      1.18710000E+02  7.89600000E+01  6.53900000E+01
           diemac      1.20000000E+01
             ecut      2.25000000E+01 Hartree
           etotal     -1.8508354457E+03
            fcart     -0.0000000000E+00 -0.0000000000E+00 -1.4784612922E-02
                      -0.0000000000E+00 -0.0000000000E+00 -1.4782745413E-02
                      -0.0000000000E+00 -0.0000000000E+00  4.9550353393E-03
                      -0.0000000000E+00 -0.0000000000E+00 -3.5970205593E-03
                      -0.0000000000E+00 -0.0000000000E+00  1.6091119260E-02
                      -0.0000000000E+00 -0.0000000000E+00  1.3352940448E-02
                      -0.0000000000E+00 -0.0000000000E+00 -1.6851504211E-02
                      -0.0000000000E+00 -0.0000000000E+00 -1.1662685583E-02
                      -0.0000000000E+00 -0.0000000000E+00  1.4294813114E-04
                      -0.0000000000E+00 -0.0000000000E+00 -6.3455208953E-03
                      -0.0000000000E+00 -0.0000000000E+00  5.5384115828E-03
                      -0.0000000000E+00 -0.0000000000E+00  1.1511134025E-02
                      -0.0000000000E+00 -0.0000000000E+00  9.1616212213E-03
                      -0.0000000000E+00 -0.0000000000E+00 -9.6943235977E-03
                      -0.0000000000E+00 -0.0000000000E+00  8.4826015864E-03
                      -0.0000000000E+00 -0.0000000000E+00  8.4826015864E-03
-          fftalg         112
             iscf          17
              ixc          11
              kpt      8.33333333E-02  8.33333333E-02  5.00000000E-01
                       2.50000000E-01  8.33333333E-02  5.00000000E-01
                       4.16666667E-01  8.33333333E-02  5.00000000E-01
                       2.50000000E-01  2.50000000E-01  5.00000000E-01
                       4.16666667E-01  2.50000000E-01  5.00000000E-01
                       4.16666667E-01  4.16666667E-01  5.00000000E-01
         kptrlatt        6    0    0      0    6    0      0    0    1
          kptrlen      4.65745901E+01
P           mkmem           2
            natom          16
            nband         128
            ngfft          36      36     240
             nkpt           6
            nstep         150
             nsym           8
           ntypat           3
              occ      2.000000  2.000000  2.000000  2.000000  2.000000  2.000000
                       2.000000  2.000000  2.000000  2.000000  2.000000  2.000000
                       2.000000  2.000000  2.000000  2.000000  2.000000  2.000000
                       2.000000  2.000000  2.000000  2.000000  2.000000  2.000000
                       2.000000  2.000000  2.000000  2.000000  2.000000  2.000000
                       2.000000  2.000000  2.000000  2.000000  2.000000  2.000000
                       2.000000  2.000000  2.000000  2.000000  2.000000  2.000000
                       2.000000  2.000000  2.000000  2.000000  2.000000  2.000000
                       2.000000  2.000000  2.000000  2.000000  2.000000  2.000000
                       2.000000  2.000000  2.000000  2.000000  2.000000  2.000000
                       2.000000  2.000000  2.000000  2.000000  2.000000  2.000000
                       2.000000  2.000000  2.000000  2.000000  2.000000  2.000000
                       2.000000  2.000000  2.000000  2.000000  2.000000  2.000000
                       2.000000  2.000000  2.000000  2.000000  2.000000  2.000000
                       2.000000  2.000000  2.000000  2.000000  2.000000  2.000000
                       2.000000  2.000000  2.000000  2.000000  2.000000  2.000000
                       2.000000  2.000000  2.000000  2.000000  2.000000  2.000000
                       2.000000  2.000000  2.000000  2.000000  2.000000  2.000000
                       2.000000  2.000000  2.000000  2.000000  2.000000  2.000000
                       2.000000  2.000000  2.000000  2.000000  2.000000  2.000000
                       2.000000  2.000000  2.000000  2.000000  2.000000  2.000000
                       0.000000  0.000000
           prtcif           1
            prtwf           0
           shiftk      5.00000000E-01  5.00000000E-01  5.00000000E-01
          spgroup          99
           strten      1.5679220055E-02  1.5679220055E-02  1.5489157174E-02
                       0.0000000000E+00  0.0000000000E+00  0.0000000000E+00
           symrel      1  0  0   0  1  0   0  0  1       1  0  0   0 -1  0   0  0  1
                      -1  0  0   0 -1  0   0  0  1      -1  0  0   0  1  0   0  0  1
                       0  1  0   1  0  0   0  0  1       0  1  0  -1  0  0   0  0  1
                       0 -1  0  -1  0  0   0  0  1       0 -1  0   1  0  0   0  0  1
            tnons      0.0000000  0.0000000  0.0000000     0.0000000 -0.0000000  0.0000000
                      -0.0000000 -0.0000000  0.0000000    -0.0000000  0.0000000  0.0000000
                       0.5000000  0.5000000  0.0000000     0.5000000  0.5000000  0.0000000
                       0.5000000  0.5000000  0.0000000     0.5000000  0.5000000  0.0000000
           toldfe      1.00000000E-06 Hartree
            typat      1  1  1  1  1  1  2  2  2  2  2  2  2  2  3  3
           vdw_xc           5
              wtk        0.11111    0.22222    0.22222    0.11111    0.22222    0.11111
           xangst      2.0538509642E+00 -1.0000005802E-10  4.6664681475E+00
                      -1.0000005802E-10  2.0538509642E+00  7.4160979620E+00
                       2.0538509642E+00 -1.0000005802E-10  1.0102196638E+01
                      -1.0000005802E-10  2.0538509642E+00  1.2851826453E+01
                       2.0538509642E+00 -1.0000005802E-10  1.5537925129E+01
                      -1.0000005802E-10  2.0538509642E+00  1.8287554943E+01
                      -1.0000005802E-10  2.0538509642E+00  4.6982333557E+00
                       2.0538509642E+00 -1.0000005802E-10  7.3919861282E+00
                      -1.0000005802E-10  2.0538509642E+00  1.0144465526E+01
                       2.0538509642E+00 -1.0000005802E-10  1.2833348659E+01
                      -1.0000005802E-10  2.0538509642E+00  1.5585828057E+01
                       2.0538509642E+00 -1.0000005802E-10  1.8274711190E+01
                       2.0538509642E+00 -1.0000005802E-10  2.5980923743E+01
                      -1.0000005802E-10  2.0538509642E+00  2.8974034570E+01
                       2.0538509642E+00  2.0538509642E+00  2.7477479156E+01
                      -1.0000005802E-10 -1.0000005802E-10  2.7477479156E+01
            xcart      3.8812158400E+00 -1.8897272293E-10  8.8183468067E+00
                      -1.8897272293E-10  3.8812158400E+00  1.4014394123E+01
                       3.8812158400E+00 -1.8897272293E-10  1.9090384987E+01
                      -1.8897272293E-10  3.8812158400E+00  2.4286432303E+01
                       3.8812158400E+00 -1.8897272293E-10  2.9362423167E+01
                      -1.8897272293E-10  3.8812158400E+00  3.4558470483E+01
                      -1.8897272293E-10  3.8812158400E+00  8.8783743507E+00
                       3.8812158400E+00 -1.8897272293E-10  1.3968829360E+01
                      -1.8897272293E-10  3.8812158400E+00  1.9170261609E+01
                       3.8812158400E+00 -1.8897272293E-10  2.4251514334E+01
                      -1.8897272293E-10  3.8812158400E+00  2.9452946582E+01
                       3.8812158400E+00 -1.8897272293E-10  3.4534199307E+01
                       3.8812158400E+00 -1.8897272293E-10  4.9096830554E+01
                      -1.8897272293E-10  3.8812158400E+00  5.4752990302E+01
                       3.8812158400E+00  3.8812158400E+00  5.1924910427E+01
                      -1.8897272293E-10 -1.8897272293E-10  5.1924910427E+01
             xred      4.9999999998E-01 -2.4344526395E-11  1.6105689859E-01
                      -2.4344526395E-11  4.9999999998E-01  2.5595668922E-01
                       4.9999999998E-01 -2.4344526395E-11  3.4866378770E-01
                      -2.4344526395E-11  4.9999999998E-01  4.4356357833E-01
                       4.9999999998E-01 -2.4344526395E-11  5.3627067681E-01
                      -2.4344526395E-11  4.9999999998E-01  6.3117046744E-01
                      -2.4344526395E-11  4.9999999998E-01  1.6215323221E-01
                       4.9999999998E-01 -2.4344526395E-11  2.5512450157E-01
                      -2.4344526395E-11  4.9999999998E-01  3.5012264175E-01
                       4.9999999998E-01 -2.4344526395E-11  4.4292584204E-01
                      -2.4344526395E-11  4.9999999998E-01  5.3792398222E-01
                       4.9999999998E-01 -2.4344526395E-11  6.3072718251E-01
                       4.9999999998E-01 -2.4344526395E-11  8.9669678830E-01
                      -2.4344526395E-11  4.9999999998E-01  1.0000000000E+00
                       4.9999999998E-01  4.9999999998E-01  9.4834839414E-01
                      -2.4344526395E-11 -2.4344526395E-11  9.4834839414E-01
            znucl       50.00000   34.00000   30.00000

- Timing analysis has been suppressed with timopt=0

 Suggested references for the acknowledgment of ABINIT usage.

 Calculation completed.
.Delivered   0 WARNINGs and   0 COMMENTs to log file.