.Version 9.2.2 of ABINIT

 ABINIT is a project of the Universite Catholique de Louvain,
 Corning Inc. and other collaborators, see ~abinit/doc/developers/contributors.txt .
 acknowledgments of the ABINIT effort.

.Starting date : Sun 17 Mar 2024.
- ( at 12h15 )

- The starting date is more than 3 years after the initial release
- of this version of ABINIT, namely Nov 2020.
- This version of ABINIT is not supported anymore.
- Action: please, switch to a more recent version of ABINIT.
- input  file    -> Cs2TiI6.in
- output file    -> Cs2TiI6.out
- root for input  files -> Cs2TiI6i
- root for output files -> Cs2TiI6o

 Symmetries : space group P4 m m (# 99); Bravais tP (primitive tetrag.)
     intxc =       0    ionmov =       0      iscf =      17    lmnmax =       6
     lnmax =       6     mgfft =     270  mpssoang =       3    mqgrid =   12867
     natom =      18  nloc_mem =       1    nspden =       1   nspinor =       1
    nsppol =       1      nsym =       8    n1xccc =    2501    ntypat =       3
    occopt =       1   xclevel =       2
-    mband =         144        mffmem =           1         mkmem =           2
       mpw =       18552          nfft =      349920          nkpt =           6
  Rough estimation (10% accuracy) of disk space for files :

------------- Echo of variables that govern the present computation ------------
-
- outvars: echo of selected default values
-   iomode0 =  0 , fftalg0 =112 , wfoptalg0 =  0
-
- outvars: echo of global parameters not present in the input file
-  max_nthreads =    0
-
 -outvars: echo values of preprocessed input variables --------
            acell      7.7624316804E+00  7.7624316804E+00  7.7624316804E+00 Bohr
              amu      1.18710000E+02  7.89600000E+01  6.53900000E+01
           diemac      1.20000000E+01
             ecut      2.25000000E+01 Hartree
-          fftalg         112
             iscf          17
              ixc          11
              kpt      8.33333333E-02  8.33333333E-02  5.00000000E-01
                       2.50000000E-01  8.33333333E-02  5.00000000E-01
                       4.16666667E-01  8.33333333E-02  5.00000000E-01
                       2.50000000E-01  2.50000000E-01  5.00000000E-01
                       4.16666667E-01  2.50000000E-01  5.00000000E-01
                       4.16666667E-01  4.16666667E-01  5.00000000E-01
         kptrlatt        6    0    0      0    6    0      0    0    1
          kptrlen      4.65745901E+01
P           mkmem           2
            natom          18
            nband         144
            ngfft          36      36     270
             nkpt           6
            nstep         150
             nsym           8
           ntypat           3
              occ      2.000000  2.000000  2.000000  2.000000  2.000000  2.000000
                       2.000000  2.000000  2.000000  2.000000  2.000000  2.000000
                       2.000000  2.000000  2.000000  2.000000  2.000000  2.000000
                       2.000000  2.000000  2.000000  2.000000  2.000000  2.000000
                       2.000000  2.000000  2.000000  2.000000  2.000000  2.000000
                       2.000000  2.000000  2.000000  2.000000  2.000000  2.000000
                       2.000000  2.000000  2.000000  2.000000  2.000000  2.000000
                       2.000000  2.000000  2.000000  2.000000  2.000000  2.000000
                       2.000000  2.000000  2.000000  2.000000  2.000000  2.000000
                       2.000000  2.000000  2.000000  2.000000  2.000000  2.000000
                       2.000000  2.000000  2.000000  2.000000  2.000000  2.000000
                       2.000000  2.000000  2.000000  2.000000  2.000000  2.000000
                       2.000000  2.000000  2.000000  2.000000  2.000000  2.000000
                       2.000000  2.000000  2.000000  2.000000  2.000000  2.000000
                       2.000000  2.000000  2.000000  2.000000  2.000000  2.000000
                       2.000000  2.000000  2.000000  2.000000  2.000000  2.000000
                       2.000000  2.000000  2.000000  2.000000  2.000000  2.000000
                       2.000000  2.000000  2.000000  2.000000  2.000000  2.000000
                       2.000000  2.000000  2.000000  2.000000  2.000000  2.000000
                       2.000000  2.000000  2.000000  2.000000  2.000000  2.000000
                       2.000000  2.000000  2.000000  2.000000  2.000000  2.000000
                       2.000000  2.000000  2.000000  2.000000  2.000000  2.000000
                       2.000000  2.000000  2.000000  2.000000  2.000000  2.000000
                       2.000000  2.000000  2.000000  0.000000  0.000000  0.000000
           prtcif           1
            prtwf           0
            rprim      1.0000000000E+00  0.0000000000E+00  0.0000000000E+00
                       0.0000000000E+00  1.0000000000E+00  0.0000000000E+00
                       0.0000000000E+00  0.0000000000E+00  7.7624175269E+00
           shiftk      5.00000000E-01  5.00000000E-01  5.00000000E-01
          spgroup          99
           symrel      1  0  0   0  1  0   0  0  1       1  0  0   0 -1  0   0  0  1
                      -1  0  0   0 -1  0   0  0  1      -1  0  0   0  1  0   0  0  1
                       0  1  0   1  0  0   0  0  1       0  1  0  -1  0  0   0  0  1
                       0 -1  0  -1  0  0   0  0  1       0 -1  0   1  0  0   0  0  1
            tnons      0.0000000  0.0000000  0.0000000     0.0000000 -0.0000000  0.0000000
                      -0.0000000 -0.0000000  0.0000000    -0.0000000  0.0000000  0.0000000
                       0.5000000  0.5000000  0.0000000     0.5000000  0.5000000  0.0000000
                       0.5000000  0.5000000  0.0000000     0.5000000  0.5000000  0.0000000
           toldfe      1.00000000E-07 Hartree
            typat      1  1  1  1  1  1  1  2  2  2  2  2  2  2  2  2  3  3
           vdw_xc           5
              wtk        0.11111    0.22222    0.22222    0.11111    0.22222    0.11111
           xangst      2.0538509643E+00  0.0000000000E+00  4.6664718211E+00
                       0.0000000000E+00  2.0538509643E+00  7.4161030546E+00
                       2.0538509643E+00  0.0000000000E+00  1.0102186093E+01
                       0.0000000000E+00  2.0538509643E+00  1.2851817327E+01
                       2.0538509643E+00  0.0000000000E+00  1.5537932251E+01
                       0.0000000000E+00  2.0538509643E+00  1.8287563484E+01
                       2.0538509643E+00  0.0000000000E+00  2.0973646523E+01
                       0.0000000000E+00  2.0538509643E+00  4.6982299757E+00
                       2.0538509643E+00  0.0000000000E+00  7.3843448999E+00
                       0.0000000000E+00  2.0538509643E+00  1.0133976133E+01
                       2.0538509643E+00  0.0000000000E+00  1.2820059172E+01
                       0.0000000000E+00  2.0538509643E+00  1.5569690405E+01
                       2.0538509643E+00  0.0000000000E+00  1.8255773444E+01
                       0.0000000000E+00  2.0538509643E+00  2.1005404677E+01
                       2.0538509643E+00  0.0000000000E+00  2.4229208118E+01
                       0.0000000000E+00  2.0538509643E+00  2.7219225624E+01
                       2.0538509643E+00  2.0538509643E+00  2.5724232814E+01
                       0.0000000000E+00  0.0000000000E+00  2.5724232814E+01
            xcart      3.8812158402E+00  0.0000000000E+00  8.8183537487E+00
                       0.0000000000E+00  3.8812158402E+00  1.4014403746E+01
                       3.8812158402E+00  0.0000000000E+00  1.9090365059E+01
                       0.0000000000E+00  3.8812158402E+00  2.4286415057E+01
                       3.8812158402E+00  0.0000000000E+00  2.9362436625E+01
                       0.0000000000E+00  3.8812158402E+00  3.4558486623E+01
                       3.8812158402E+00  0.0000000000E+00  3.9634447936E+01
                       0.0000000000E+00  3.8812158402E+00  8.8783679635E+00
                       3.8812158402E+00  0.0000000000E+00  1.3954389532E+01
                       0.0000000000E+00  3.8812158402E+00  1.9150439529E+01
                       3.8812158402E+00  0.0000000000E+00  2.4226400842E+01
                       0.0000000000E+00  3.8812158402E+00  2.9422450840E+01
                       3.8812158402E+00  0.0000000000E+00  3.4498412153E+01
                       0.0000000000E+00  3.8812158402E+00  3.9694462151E+01
                       3.8812158402E+00  0.0000000000E+00  4.5786567759E+01
                       0.0000000000E+00  3.8812158402E+00  5.1436881979E+01
                       3.8812158402E+00  3.8812158402E+00  4.8611754996E+01
                       0.0000000000E+00  0.0000000000E+00  4.8611754996E+01
             xred      5.0000000000E-01  0.0000000000E+00  1.4635000000E-01
                       0.0000000000E+00  5.0000000000E-01  2.3258400000E-01
                       5.0000000000E-01  0.0000000000E+00  3.1682500000E-01
                       0.0000000000E+00  5.0000000000E-01  4.0305900000E-01
                       5.0000000000E-01  0.0000000000E+00  4.8730100000E-01
                       0.0000000000E+00  5.0000000000E-01  5.7353500000E-01
                       5.0000000000E-01  0.0000000000E+00  6.5777600000E-01
                       0.0000000000E+00  5.0000000000E-01  1.4734600000E-01
                       5.0000000000E-01  0.0000000000E+00  2.3158800000E-01
                       0.0000000000E+00  5.0000000000E-01  3.1782200000E-01
                       5.0000000000E-01  0.0000000000E+00  4.0206300000E-01
                       0.0000000000E+00  5.0000000000E-01  4.8829700000E-01
                       5.0000000000E-01  0.0000000000E+00  5.7253800000E-01
                       0.0000000000E+00  5.0000000000E-01  6.5877200000E-01
                       5.0000000000E-01  0.0000000000E+00  7.5987700000E-01
                       0.0000000000E+00  5.0000000000E-01  8.5365000000E-01
                       5.0000000000E-01  5.0000000000E-01  8.0676400000E-01
                       0.0000000000E+00  0.0000000000E+00  8.0676400000E-01
            znucl       50.00000   34.00000   30.00000

 chkinp: Checking input parameters for consistency.

== DATASET  1 ==================================================================
-   mpi_nproc: 4, omp_nthreads: -1 (-1 if OMP is not activated)

--- !DatasetInfo
iteration_state: {dtset: 1, }
dimensions: {natom: 18, nkpt: 6, mband: 144, nsppol: 1, nspinor: 1, nspden: 1, mpw: 18552, }
cutoff_energies: {ecut:  22.5, pawecutdg:  -1.0, }
electrons: {nelect:   2.82000000E+02, charge:   0.00000000E+00, occopt:   1.00000000E+00, tsmear:   1.00000000E-02, }
meta: {optdriver: 0, ionmov: 0, optcell: 0, iscf: 17, paral_kgb: 0, }
...

 Real(R)+Recip(G) space primitive vectors, cartesian coordinates (Bohr,Bohr^-1):
 R(1)=  7.7624317  0.0000000  0.0000000  G(1)=  0.1288256  0.0000000  0.0000000
 R(2)=  0.0000000  7.7624317  0.0000000  G(2)=  0.0000000  0.1288256  0.0000000
 R(3)=  0.0000000  0.0000000 60.2552357  G(3)=  0.0000000  0.0000000  0.0165961
 Unit cell volume ucvol=  3.6307001E+03 bohr^3
[...]
   18      0.00000000000000     0.00000000000000    25.72423281361033

 cartesian forces (hartree/bohr) at end:
    1     -0.00000000000000    -0.00000000000000    -0.01410319045497
    2     -0.00000000000000    -0.00000000000000    -0.01460064052901
    3     -0.00000000000000    -0.00000000000000     0.00190131227024
    4     -0.00000000000000    -0.00000000000000    -0.00154234039793
    5     -0.00000000000000    -0.00000000000000    -0.00061066322257
    6     -0.00000000000000    -0.00000000000000     0.00996894456619
    7     -0.00000000000000    -0.00000000000000     0.01074956877551
    8     -0.00000000000000    -0.00000000000000    -0.01599760571139
    9     -0.00000000000000    -0.00000000000000    -0.00973097469905
   10     -0.00000000000000    -0.00000000000000     0.00048526904105
   11     -0.00000000000000    -0.00000000000000     0.00019581099035
   12     -0.00000000000000    -0.00000000000000    -0.00580082193344
   13     -0.00000000000000    -0.00000000000000     0.00888904483818
   14     -0.00000000000000    -0.00000000000000     0.01616683039637
   15     -0.00000000000000    -0.00000000000000     0.01046459062291
   16     -0.00000000000000    -0.00000000000000    -0.01009668564991
   17     -0.00000000000000    -0.00000000000000     0.00683077554873
   18     -0.00000000000000    -0.00000000000000     0.00683077554873
 frms,max,avg= 5.5495551E-03 1.6166830E-02   0.000E+00  0.000E+00  7.619E-04 h/b

 cartesian forces (eV/Angstrom) at end:
    1     -0.00000000000000    -0.00000000000000    -0.72521515078761
    2     -0.00000000000000    -0.00000000000000    -0.75079505992947
    3     -0.00000000000000    -0.00000000000000     0.09776939970846
    4     -0.00000000000000    -0.00000000000000    -0.07931032540633
    5     -0.00000000000000    -0.00000000000000    -0.03140156281991
    6     -0.00000000000000    -0.00000000000000     0.51262369744252
    7     -0.00000000000000    -0.00000000000000     0.55276500486350
    8     -0.00000000000000    -0.00000000000000    -0.82262989181522
    9     -0.00000000000000    -0.00000000000000    -0.50038679589629
   10     -0.00000000000000    -0.00000000000000     0.02495353529408
   11     -0.00000000000000    -0.00000000000000     0.01006900511960
   12     -0.00000000000000    -0.00000000000000    -0.29829023202837
   13     -0.00000000000000    -0.00000000000000     0.45709302538738
   14     -0.00000000000000    -0.00000000000000     0.83133177426016
   15     -0.00000000000000    -0.00000000000000     0.53811084029222
   16     -0.00000000000000    -0.00000000000000    -0.51919240752178
   17     -0.00000000000000    -0.00000000000000     0.35125257191853
   18     -0.00000000000000    -0.00000000000000     0.35125257191853
 frms,max,avg= 2.8536957E-01 8.3133177E-01   0.000E+00  0.000E+00  3.918E-02 e/A
 length scales=  7.762431680422  7.762431680422  7.762431680422 bohr
              =  4.107701928516  4.107701928516  4.107701928516 angstroms
 prteigrs : about to open file Cs2TiI6o_EIG
 Fermi (or HOMO) energy (hartree) =   0.15113   Average Vxc (hartree)=  -0.31886
 Eigenvalues (hartree) for nkpt=   6  k points:
 kpt#   1, nband=144, wtk=  0.11111, kpt=  0.0833  0.0833  0.5000 (reduced coord)
  -4.72844   -4.72843   -2.96575   -2.96554   -2.96334   -2.96317   -2.96315   -2.96313
  -1.67872   -1.67799   -1.67740   -1.67717   -1.67696   -1.67369   -1.67273   -1.67197
  -1.67065   -1.66997   -1.66948   -1.66933   -1.66852   -1.66730   -1.66626   -1.66573
  -1.66553   -1.66509   -1.66415   -1.66354   -1.66336   -1.66303   -1.66294   -1.66286
  -1.66201   -1.66194   -1.66089   -1.66071   -1.66060   -1.66043   -1.66027   -1.65860
  -1.65797   -1.65564   -1.65379   -1.64338   -1.64234   -1.64118   -1.64048   -1.63968
  -1.63919   -1.63771   -1.63635   -1.63600   -1.63502   -0.66362   -0.66317   -0.66215
  -0.66214   -0.66166   -0.66163   -0.66116   -0.66102   -0.66068   -0.66053   -0.65977
  -0.65930   -0.65922   -0.65793   -0.65775   -0.65542   -0.65441   -0.65389   -0.65381
  -0.65368   -0.65320   -0.65316   -0.65308   -0.65307   -0.65305   -0.65284   -0.65279
  -0.65231   -0.65226   -0.65212   -0.65210   -0.65203   -0.65174   -0.65146   -0.65119
  -0.41660   -0.40738   -0.40072   -0.39495   -0.37932   -0.37506   -0.36310   -0.34783
  -0.34492   -0.19144   -0.18924   -0.18831   -0.18830   -0.18725   -0.17620   -0.17577
  -0.17422   -0.17035   -0.16893   -0.13829   -0.13663   -0.12099   -0.11450   -0.09788
  -0.08358   -0.07900   -0.06142   -0.05248   -0.03390   -0.03095   -0.02281   -0.01133
  -0.00790   -0.00717   -0.00016    0.00564    0.00880    0.01758    0.02611    0.03051
   0.03568    0.03706    0.04097    0.04589    0.04614    0.05599    0.06183    0.06368
   0.07446    0.07881    0.09086    0.10571    0.12834    0.16007    0.17498    0.20809
 prteigrs : prtvol=0 or 1, do not print more k-points.

--- !EnergyTerms
iteration_state     : {dtset: 1, }
comment             : Components of total free energy in Hartree
kinetic             :  1.18162809371731E+03
hartree             :  2.34025938613078E+03
xc                  : -4.13231261631271E+02
Ewald energy        :  6.33536689736591E+02
psp_core            :  4.25409802170910E+01
local_psp           : -5.13963490362810E+03
non_local_psp       : -6.94676344572939E+02
VdWaals_dft_d       : -2.24773619699195E-01
total_energy        : -2.04980213365024E+03
...

--- !EnergyTermsDC
iteration_state     : {dtset: 1, }
comment             : '"Double-counting" decomposition of free energy'
band_energy         : -2.60725649877675E+02
Ewald energy        :  6.33536689736591E+02
psp_core            :  4.25409802170910E+01
xc_dc               : -2.46492945150898E+03
VdWaals_dft_d       : -2.24773619699195E-01
total_energy_dc     : -2.04980220505268E+03
...

 Cartesian components of stress tensor (hartree/bohr^3)
  sigma(1 1)=  1.58133893E-02  sigma(3 2)=  0.00000000E+00
  sigma(2 2)=  1.58133893E-02  sigma(3 1)=  0.00000000E+00
  sigma(3 3)=  1.55302759E-02  sigma(2 1)=  0.00000000E+00

-Cartesian components of stress tensor (GPa)         [Pressure= -4.6247E+02 GPa]
- sigma(1 1)=  4.65245897E+02  sigma(3 2)=  0.00000000E+00
- sigma(2 2)=  4.65245897E+02  sigma(3 1)=  0.00000000E+00
- sigma(3 3)=  4.56916414E+02  sigma(2 1)=  0.00000000E+00

== END DATASET(S) ==============================================================

 -outvars: echo values of variables after computation  --------
            acell      7.7624316804E+00  7.7624316804E+00  7.7624316804E+00 Bohr
              amu      1.18710000E+02  7.89600000E+01  6.53900000E+01
           diemac      1.20000000E+01
             ecut      2.25000000E+01 Hartree
           etotal     -2.0498022051E+03
            fcart     -0.0000000000E+00 -0.0000000000E+00 -1.4103190455E-02
                      -0.0000000000E+00 -0.0000000000E+00 -1.4600640529E-02
                      -0.0000000000E+00 -0.0000000000E+00  1.9013122702E-03
                      -0.0000000000E+00 -0.0000000000E+00 -1.5423403979E-03
                      -0.0000000000E+00 -0.0000000000E+00 -6.1066322257E-04
                      -0.0000000000E+00 -0.0000000000E+00  9.9689445662E-03
                      -0.0000000000E+00 -0.0000000000E+00  1.0749568776E-02
                      -0.0000000000E+00 -0.0000000000E+00 -1.5997605711E-02
                      -0.0000000000E+00 -0.0000000000E+00 -9.7309746990E-03
                      -0.0000000000E+00 -0.0000000000E+00  4.8526904105E-04
                      -0.0000000000E+00 -0.0000000000E+00  1.9581099035E-04
                      -0.0000000000E+00 -0.0000000000E+00 -5.8008219334E-03
                      -0.0000000000E+00 -0.0000000000E+00  8.8890448382E-03
                      -0.0000000000E+00 -0.0000000000E+00  1.6166830396E-02
                      -0.0000000000E+00 -0.0000000000E+00  1.0464590623E-02
                      -0.0000000000E+00 -0.0000000000E+00 -1.0096685650E-02
                      -0.0000000000E+00 -0.0000000000E+00  6.8307755487E-03
                      -0.0000000000E+00 -0.0000000000E+00  6.8307755487E-03
-          fftalg         112
             iscf          17
              ixc          11
              kpt      8.33333333E-02  8.33333333E-02  5.00000000E-01
                       2.50000000E-01  8.33333333E-02  5.00000000E-01
                       4.16666667E-01  8.33333333E-02  5.00000000E-01
                       2.50000000E-01  2.50000000E-01  5.00000000E-01
                       4.16666667E-01  2.50000000E-01  5.00000000E-01
                       4.16666667E-01  4.16666667E-01  5.00000000E-01
         kptrlatt        6    0    0      0    6    0      0    0    1
          kptrlen      4.65745901E+01
P           mkmem           2
            natom          18
            nband         144
            ngfft          36      36     270
             nkpt           6
            nstep         150
             nsym           8
           ntypat           3
              occ      2.000000  2.000000  2.000000  2.000000  2.000000  2.000000
                       2.000000  2.000000  2.000000  2.000000  2.000000  2.000000
                       2.000000  2.000000  2.000000  2.000000  2.000000  2.000000
                       2.000000  2.000000  2.000000  2.000000  2.000000  2.000000
                       2.000000  2.000000  2.000000  2.000000  2.000000  2.000000
                       2.000000  2.000000  2.000000  2.000000  2.000000  2.000000
                       2.000000  2.000000  2.000000  2.000000  2.000000  2.000000
                       2.000000  2.000000  2.000000  2.000000  2.000000  2.000000
                       2.000000  2.000000  2.000000  2.000000  2.000000  2.000000
                       2.000000  2.000000  2.000000  2.000000  2.000000  2.000000
                       2.000000  2.000000  2.000000  2.000000  2.000000  2.000000
                       2.000000  2.000000  2.000000  2.000000  2.000000  2.000000
                       2.000000  2.000000  2.000000  2.000000  2.000000  2.000000
                       2.000000  2.000000  2.000000  2.000000  2.000000  2.000000
                       2.000000  2.000000  2.000000  2.000000  2.000000  2.000000
                       2.000000  2.000000  2.000000  2.000000  2.000000  2.000000
                       2.000000  2.000000  2.000000  2.000000  2.000000  2.000000
                       2.000000  2.000000  2.000000  2.000000  2.000000  2.000000
                       2.000000  2.000000  2.000000  2.000000  2.000000  2.000000
                       2.000000  2.000000  2.000000  2.000000  2.000000  2.000000
                       2.000000  2.000000  2.000000  2.000000  2.000000  2.000000
                       2.000000  2.000000  2.000000  2.000000  2.000000  2.000000
                       2.000000  2.000000  2.000000  2.000000  2.000000  2.000000
                       2.000000  2.000000  2.000000  0.000000  0.000000  0.000000
           prtcif           1
            prtwf           0
            rprim      1.0000000000E+00  0.0000000000E+00  0.0000000000E+00
                       0.0000000000E+00  1.0000000000E+00  0.0000000000E+00
                       0.0000000000E+00  0.0000000000E+00  7.7624175269E+00
           shiftk      5.00000000E-01  5.00000000E-01  5.00000000E-01
          spgroup          99
           strten      1.5813389294E-02  1.5813389294E-02  1.5530275858E-02
                       0.0000000000E+00  0.0000000000E+00  0.0000000000E+00
           symrel      1  0  0   0  1  0   0  0  1       1  0  0   0 -1  0   0  0  1
                      -1  0  0   0 -1  0   0  0  1      -1  0  0   0  1  0   0  0  1
                       0  1  0   1  0  0   0  0  1       0  1  0  -1  0  0   0  0  1
                       0 -1  0  -1  0  0   0  0  1       0 -1  0   1  0  0   0  0  1
            tnons      0.0000000  0.0000000  0.0000000     0.0000000 -0.0000000  0.0000000
                      -0.0000000 -0.0000000  0.0000000    -0.0000000  0.0000000  0.0000000
                       0.5000000  0.5000000  0.0000000     0.5000000  0.5000000  0.0000000
                       0.5000000  0.5000000  0.0000000     0.5000000  0.5000000  0.0000000
           toldfe      1.00000000E-07 Hartree
            typat      1  1  1  1  1  1  1  2  2  2  2  2  2  2  2  2  3  3
           vdw_xc           5
              wtk        0.11111    0.22222    0.22222    0.11111    0.22222    0.11111
           xangst      2.0538509643E+00  0.0000000000E+00  4.6664718211E+00
                       0.0000000000E+00  2.0538509643E+00  7.4161030546E+00
                       2.0538509643E+00  0.0000000000E+00  1.0102186093E+01
                       0.0000000000E+00  2.0538509643E+00  1.2851817327E+01
                       2.0538509643E+00  0.0000000000E+00  1.5537932251E+01
                       0.0000000000E+00  2.0538509643E+00  1.8287563484E+01
                       2.0538509643E+00  0.0000000000E+00  2.0973646523E+01
                       0.0000000000E+00  2.0538509643E+00  4.6982299757E+00
                       2.0538509643E+00  0.0000000000E+00  7.3843448999E+00
                       0.0000000000E+00  2.0538509643E+00  1.0133976133E+01
                       2.0538509643E+00  0.0000000000E+00  1.2820059172E+01
                       0.0000000000E+00  2.0538509643E+00  1.5569690405E+01
                       2.0538509643E+00  0.0000000000E+00  1.8255773444E+01
                       0.0000000000E+00  2.0538509643E+00  2.1005404677E+01
                       2.0538509643E+00  0.0000000000E+00  2.4229208118E+01
                       0.0000000000E+00  2.0538509643E+00  2.7219225624E+01
                       2.0538509643E+00  2.0538509643E+00  2.5724232814E+01
                       0.0000000000E+00  0.0000000000E+00  2.5724232814E+01
            xcart      3.8812158402E+00  0.0000000000E+00  8.8183537487E+00
                       0.0000000000E+00  3.8812158402E+00  1.4014403746E+01
                       3.8812158402E+00  0.0000000000E+00  1.9090365059E+01
                       0.0000000000E+00  3.8812158402E+00  2.4286415057E+01
                       3.8812158402E+00  0.0000000000E+00  2.9362436625E+01
                       0.0000000000E+00  3.8812158402E+00  3.4558486623E+01
                       3.8812158402E+00  0.0000000000E+00  3.9634447936E+01
                       0.0000000000E+00  3.8812158402E+00  8.8783679635E+00
                       3.8812158402E+00  0.0000000000E+00  1.3954389532E+01
                       0.0000000000E+00  3.8812158402E+00  1.9150439529E+01
                       3.8812158402E+00  0.0000000000E+00  2.4226400842E+01
                       0.0000000000E+00  3.8812158402E+00  2.9422450840E+01
                       3.8812158402E+00  0.0000000000E+00  3.4498412153E+01
                       0.0000000000E+00  3.8812158402E+00  3.9694462151E+01
                       3.8812158402E+00  0.0000000000E+00  4.5786567759E+01
                       0.0000000000E+00  3.8812158402E+00  5.1436881979E+01
                       3.8812158402E+00  3.8812158402E+00  4.8611754996E+01
                       0.0000000000E+00  0.0000000000E+00  4.8611754996E+01
             xred      5.0000000000E-01  0.0000000000E+00  1.4635000000E-01
                       0.0000000000E+00  5.0000000000E-01  2.3258400000E-01
                       5.0000000000E-01  0.0000000000E+00  3.1682500000E-01
                       0.0000000000E+00  5.0000000000E-01  4.0305900000E-01
                       5.0000000000E-01  0.0000000000E+00  4.8730100000E-01
                       0.0000000000E+00  5.0000000000E-01  5.7353500000E-01
                       5.0000000000E-01  0.0000000000E+00  6.5777600000E-01
                       0.0000000000E+00  5.0000000000E-01  1.4734600000E-01
                       5.0000000000E-01  0.0000000000E+00  2.3158800000E-01
                       0.0000000000E+00  5.0000000000E-01  3.1782200000E-01
                       5.0000000000E-01  0.0000000000E+00  4.0206300000E-01
                       0.0000000000E+00  5.0000000000E-01  4.8829700000E-01
                       5.0000000000E-01  0.0000000000E+00  5.7253800000E-01
                       0.0000000000E+00  5.0000000000E-01  6.5877200000E-01
                       5.0000000000E-01  0.0000000000E+00  7.5987700000E-01
                       0.0000000000E+00  5.0000000000E-01  8.5365000000E-01
                       5.0000000000E-01  5.0000000000E-01  8.0676400000E-01
                       0.0000000000E+00  0.0000000000E+00  8.0676400000E-01
            znucl       50.00000   34.00000   30.00000

- Timing analysis has been suppressed with timopt=0

 Suggested references for the acknowledgment of ABINIT usage.

 Calculation completed.
.Delivered   0 WARNINGs and   0 COMMENTs to log file.