.Version 9.2.2 of ABINIT

 ABINIT is a project of the Universite Catholique de Louvain,
 Corning Inc. and other collaborators, see ~abinit/doc/developers/contributors.txt .
 acknowledgments of the ABINIT effort.

.Starting date : Sat 16 Mar 2024.
- ( at 14h18 )

- The starting date is more than 3 years after the initial release
- of this version of ABINIT, namely Nov 2020.
- This version of ABINIT is not supported anymore.
- Action: please, switch to a more recent version of ABINIT.
- input  file    -> Cs2TiI6.in
- output file    -> Cs2TiI6.out
- root for input  files -> Cs2TiI6i
- root for output files -> Cs2TiI6o

 DATASET    1 : space group P4 m m (# 99); Bravais tP (primitive tetrag.)
     intxc =       0    ionmov =       0      iscf =       7    lmnmax =       6
     lnmax =       6     mgfft =     128  mpssoang =       3    mqgrid =    6225
     natom =       6  nloc_mem =       1    nspden =       1   nspinor =       1
    nsppol =       1      nsym =       8    n1xccc =    2501    ntypat =       3
    occopt =       1   xclevel =       2
-    mband =          52        mffmem =           1         mkmem =           5
       mpw =        8983          nfft =      165888          nkpt =          30
  Rough estimation (10% accuracy) of disk space for files :

[...]

 DATASET    3 : space group P4 m m (# 99); Bravais tP (primitive tetrag.)
     intxc =       0    ionmov =       0      iscf =      -2    lmnmax =       6
     lnmax =       6     mgfft =     128  mpssoang =       3    mqgrid =    6225
     natom =       6  nloc_mem =       1    nspden =       1   nspinor =       1
    nsppol =       1      nsym =       8    n1xccc =    2501    ntypat =       3
    occopt =       1   xclevel =       2
-    mband =         120        mffmem =           1         mkmem =          34
       mpw =        8983          nfft =      165888          nkpt =         200
  Rough estimation (10% accuracy) of disk space for files :

 DATASET    4 : space group P4 m m (# 99); Bravais tP (primitive tetrag.)
     intxc =       0      iscf =      -3    lmnmax =       6     lnmax =       6
     mgfft =     128  mpssoang =       3    mqgrid =    6225     natom =       6
  nloc_mem =       1    nspden =       1   nspinor =       1    nsppol =       1
      nsym =       8    n1xccc =    2501    ntypat =       3    occopt =       1
   xclevel =       2
-    mband =         120        mffmem =           1         mkmem =          34
-   mkqmem =          34        mk1mem =          34           mpw =        8983
      nfft =      165888          nkpt =         200
  Rough estimation (10% accuracy) of disk space for files :

[...]

 DATASET    6 : space group P4 m m (# 99); Bravais tP (primitive tetrag.)
     intxc =       0      iscf =      -3    lmnmax =       6     lnmax =       6
     mgfft =     128  mpssoang =       3    mqgrid =    6225     natom =       6
  nloc_mem =       1    nspden =       1   nspinor =       1    nsppol =       1
      nsym =       8    n1xccc =    2501    ntypat =       3    occopt =       1
   xclevel =       2
-    mband =         120        mffmem =           1         mkmem =          34
-   mkqmem =          34        mk1mem =          34           mpw =        8983
      nfft =      165888          nkpt =         200
  Rough estimation (10% accuracy) of disk space for files :

------------- Echo of variables that govern the present computation ------------
-
- outvars: echo of selected default values
-   iomode0 =  0 , fftalg0 =112 , wfoptalg0 =  0
-
- outvars: echo of global parameters not present in the input file
-  max_nthreads =    0
-
 -outvars: echo values of preprocessed input variables --------
            acell      7.7624316804E+00  7.7624316804E+00  7.7624316804E+00 Bohr
              amu      1.18710000E+02  7.89600000E+01  6.53900000E+01
           diemac      1.20000000E+01
             ecut      2.25000000E+01 Hartree
-          fftalg         112
           getden1          0
           getden2          1
           getden3          1
           getden4          0
           getden5          0
           getden6          0
           getwfk1          0
           getwfk2          1
           getwfk3          2
           getwfk4          3
           getwfk5          3
           getwfk6          3
             iscf1          7
             iscf2         -2
             iscf3         -2
             iscf4         -3
             iscf5         -3
             iscf6         -3
              ixc          11
           jdtset        1    2    3    4    5    6
              kpt1     5.00000000E-02  5.00000000E-02  1.25000000E-01
                       1.50000000E-01  5.00000000E-02  1.25000000E-01
                       2.50000000E-01  5.00000000E-02  1.25000000E-01
                       3.50000000E-01  5.00000000E-02  1.25000000E-01
                       4.50000000E-01  5.00000000E-02  1.25000000E-01
                       1.50000000E-01  1.50000000E-01  1.25000000E-01
                       2.50000000E-01  1.50000000E-01  1.25000000E-01
                       3.50000000E-01  1.50000000E-01  1.25000000E-01
                       4.50000000E-01  1.50000000E-01  1.25000000E-01
                       2.50000000E-01  2.50000000E-01  1.25000000E-01
                       3.50000000E-01  2.50000000E-01  1.25000000E-01
                       4.50000000E-01  2.50000000E-01  1.25000000E-01
                       3.50000000E-01  3.50000000E-01  1.25000000E-01
                       4.50000000E-01  3.50000000E-01  1.25000000E-01
                       4.50000000E-01  4.50000000E-01  1.25000000E-01
                       5.00000000E-02  5.00000000E-02  3.75000000E-01
                       1.50000000E-01  5.00000000E-02  3.75000000E-01
                       2.50000000E-01  5.00000000E-02  3.75000000E-01
                       3.50000000E-01  5.00000000E-02  3.75000000E-01
                       4.50000000E-01  5.00000000E-02  3.75000000E-01
                       1.50000000E-01  1.50000000E-01  3.75000000E-01
                       2.50000000E-01  1.50000000E-01  3.75000000E-01
                       3.50000000E-01  1.50000000E-01  3.75000000E-01
                       4.50000000E-01  1.50000000E-01  3.75000000E-01
                       2.50000000E-01  2.50000000E-01  3.75000000E-01
                       3.50000000E-01  2.50000000E-01  3.75000000E-01
                       4.50000000E-01  2.50000000E-01  3.75000000E-01
                       3.50000000E-01  3.50000000E-01  3.75000000E-01
                       4.50000000E-01  3.50000000E-01  3.75000000E-01
                       4.50000000E-01  4.50000000E-01  3.75000000E-01
              kpt2     5.00000000E-02  5.00000000E-02  1.25000000E-01
                       1.50000000E-01  5.00000000E-02  1.25000000E-01
                       2.50000000E-01  5.00000000E-02  1.25000000E-01
                       3.50000000E-01  5.00000000E-02  1.25000000E-01
                       4.50000000E-01  5.00000000E-02  1.25000000E-01
                       1.50000000E-01  1.50000000E-01  1.25000000E-01
                       2.50000000E-01  1.50000000E-01  1.25000000E-01
                       3.50000000E-01  1.50000000E-01  1.25000000E-01
                       4.50000000E-01  1.50000000E-01  1.25000000E-01
                       2.50000000E-01  2.50000000E-01  1.25000000E-01
                       3.50000000E-01  2.50000000E-01  1.25000000E-01
                       4.50000000E-01  2.50000000E-01  1.25000000E-01
                       3.50000000E-01  3.50000000E-01  1.25000000E-01
                       4.50000000E-01  3.50000000E-01  1.25000000E-01
                       4.50000000E-01  4.50000000E-01  1.25000000E-01
                       5.00000000E-02  5.00000000E-02  3.75000000E-01
                       1.50000000E-01  5.00000000E-02  3.75000000E-01
                       2.50000000E-01  5.00000000E-02  3.75000000E-01
                       3.50000000E-01  5.00000000E-02  3.75000000E-01
                       4.50000000E-01  5.00000000E-02  3.75000000E-01
                       1.50000000E-01  1.50000000E-01  3.75000000E-01
                       2.50000000E-01  1.50000000E-01  3.75000000E-01
                       3.50000000E-01  1.50000000E-01  3.75000000E-01
                       4.50000000E-01  1.50000000E-01  3.75000000E-01
                       2.50000000E-01  2.50000000E-01  3.75000000E-01
                       3.50000000E-01  2.50000000E-01  3.75000000E-01
                       4.50000000E-01  2.50000000E-01  3.75000000E-01
                       3.50000000E-01  3.50000000E-01  3.75000000E-01
                       4.50000000E-01  3.50000000E-01  3.75000000E-01
                       4.50000000E-01  4.50000000E-01  3.75000000E-01
              kpt3     5.00000000E-02  5.00000000E-02  1.25000000E-01
                       1.50000000E-01  5.00000000E-02  1.25000000E-01
                       2.50000000E-01  5.00000000E-02  1.25000000E-01
                       3.50000000E-01  5.00000000E-02  1.25000000E-01
                       4.50000000E-01  5.00000000E-02  1.25000000E-01
                      -4.50000000E-01  5.00000000E-02  1.25000000E-01
                      -3.50000000E-01  5.00000000E-02  1.25000000E-01
                      -2.50000000E-01  5.00000000E-02  1.25000000E-01
                      -1.50000000E-01  5.00000000E-02  1.25000000E-01
                      -5.00000000E-02  5.00000000E-02  1.25000000E-01
                       5.00000000E-02  1.50000000E-01  1.25000000E-01
                       1.50000000E-01  1.50000000E-01  1.25000000E-01
                       2.50000000E-01  1.50000000E-01  1.25000000E-01
                       3.50000000E-01  1.50000000E-01  1.25000000E-01
                       4.50000000E-01  1.50000000E-01  1.25000000E-01
                      -4.50000000E-01  1.50000000E-01  1.25000000E-01
                      -3.50000000E-01  1.50000000E-01  1.25000000E-01
                      -2.50000000E-01  1.50000000E-01  1.25000000E-01
                      -1.50000000E-01  1.50000000E-01  1.25000000E-01
                      -5.00000000E-02  1.50000000E-01  1.25000000E-01
                       5.00000000E-02  2.50000000E-01  1.25000000E-01
                       1.50000000E-01  2.50000000E-01  1.25000000E-01
                       2.50000000E-01  2.50000000E-01  1.25000000E-01
                       3.50000000E-01  2.50000000E-01  1.25000000E-01
                       4.50000000E-01  2.50000000E-01  1.25000000E-01
                      -4.50000000E-01  2.50000000E-01  1.25000000E-01
                      -3.50000000E-01  2.50000000E-01  1.25000000E-01
                      -2.50000000E-01  2.50000000E-01  1.25000000E-01
                      -1.50000000E-01  2.50000000E-01  1.25000000E-01
                      -5.00000000E-02  2.50000000E-01  1.25000000E-01
                       5.00000000E-02  3.50000000E-01  1.25000000E-01
                       1.50000000E-01  3.50000000E-01  1.25000000E-01
                       2.50000000E-01  3.50000000E-01  1.25000000E-01
                       3.50000000E-01  3.50000000E-01  1.25000000E-01
[...]
                       1.50000000E-01  3.50000000E-01  1.25000000E-01
                       2.50000000E-01  3.50000000E-01  1.25000000E-01
                       3.50000000E-01  3.50000000E-01  1.25000000E-01
                       4.50000000E-01  3.50000000E-01  1.25000000E-01
                      -4.50000000E-01  3.50000000E-01  1.25000000E-01
                      -3.50000000E-01  3.50000000E-01  1.25000000E-01
                      -2.50000000E-01  3.50000000E-01  1.25000000E-01
                      -1.50000000E-01  3.50000000E-01  1.25000000E-01
                      -5.00000000E-02  3.50000000E-01  1.25000000E-01
                       5.00000000E-02  4.50000000E-01  1.25000000E-01
                       1.50000000E-01  4.50000000E-01  1.25000000E-01
                       2.50000000E-01  4.50000000E-01  1.25000000E-01
                       3.50000000E-01  4.50000000E-01  1.25000000E-01
                       4.50000000E-01  4.50000000E-01  1.25000000E-01
                      -4.50000000E-01  4.50000000E-01  1.25000000E-01
                      -3.50000000E-01  4.50000000E-01  1.25000000E-01
                      -2.50000000E-01  4.50000000E-01  1.25000000E-01
                      -1.50000000E-01  4.50000000E-01  1.25000000E-01
                      -5.00000000E-02  4.50000000E-01  1.25000000E-01
                       outvar_i_n : Printing only first  50 k-points.
           kptopt1          1
           kptopt2          1
           kptopt3          2
           kptopt4          2
           kptopt5          2
           kptopt6          2
         kptrlatt       10    0    0      0   10    0      0    0    4
          kptrlen      7.76243168E+01
P           mkmem1          5
P           mkmem2          5
P           mkmem3         34
P           mkmem4         34
P           mkmem5         34
P           mkmem6         34
P          mkqmem1          5
P          mkqmem2          5
P          mkqmem3         34
P          mkqmem4         34
P          mkqmem5         34
P          mkqmem6         34
P          mk1mem1          5
P          mk1mem2          5
P          mk1mem3         34
P          mk1mem4         34
P          mk1mem5         34
P          mk1mem6         34
            natom           6
            nband1         52
            nband2        120
            nband3        120
            nband4        120
            nband5        120
            nband6        120
           nbdbuf1          0
           nbdbuf2          2
           nbdbuf3          2
           nbdbuf4          2
           nbdbuf5          2
           nbdbuf6          2
           ndtset           6
            ngfft          36      36     128
             nkpt1         30
             nkpt2         30
             nkpt3        200
             nkpt4        200
             nkpt5        200
             nkpt6        200
            nline1          4
            nline2          4
            nline3          4
            nline4          0
            nline5          0
            nline6          0
             nqpt1          0
             nqpt2          0
             nqpt3          0
             nqpt4          1
             nqpt5          1
             nqpt6          1
            nstep1        400
            nstep2        200
            nstep3        200
            nstep4          1
            nstep5          1
            nstep6          1
             nsym           8
           ntypat           3
              occ1     2.000000  2.000000  2.000000  2.000000  2.000000  2.000000
                       2.000000  2.000000  2.000000  2.000000  2.000000  2.000000
                       2.000000  2.000000  2.000000  2.000000  2.000000  2.000000
                       2.000000  2.000000  2.000000  2.000000  2.000000  2.000000
                       2.000000  2.000000  2.000000  2.000000  2.000000  2.000000
                       2.000000  2.000000  2.000000  2.000000  2.000000  2.000000
                       2.000000  2.000000  2.000000  2.000000  2.000000  2.000000
                       2.000000  2.000000  2.000000  2.000000  2.000000  2.000000
                       2.000000  2.000000  2.000000  0.000000
              occ4     2.000000  2.000000  2.000000  2.000000  2.000000  2.000000
                       2.000000  2.000000  2.000000  2.000000  2.000000  2.000000
                       2.000000  2.000000  2.000000  2.000000  2.000000  2.000000
                       2.000000  2.000000  2.000000  2.000000  2.000000  2.000000
                       2.000000  2.000000  2.000000  2.000000  2.000000  2.000000
                       2.000000  2.000000  2.000000  2.000000  2.000000  2.000000
                       2.000000  2.000000  2.000000  2.000000  2.000000  2.000000
                       2.000000  2.000000  2.000000  2.000000  2.000000  2.000000
                       2.000000  2.000000  2.000000  0.000000  0.000000  0.000000
                       0.000000  0.000000  0.000000  0.000000  0.000000  0.000000
                       0.000000  0.000000  0.000000  0.000000  0.000000  0.000000
                       0.000000  0.000000  0.000000  0.000000  0.000000  0.000000
                       0.000000  0.000000  0.000000  0.000000  0.000000  0.000000
                       0.000000  0.000000  0.000000  0.000000  0.000000  0.000000
                       0.000000  0.000000  0.000000  0.000000  0.000000  0.000000
                       0.000000  0.000000  0.000000  0.000000  0.000000  0.000000
                       0.000000  0.000000  0.000000  0.000000  0.000000  0.000000
                       0.000000  0.000000  0.000000  0.000000  0.000000  0.000000
                       0.000000  0.000000  0.000000  0.000000  0.000000  0.000000
                       0.000000  0.000000  0.000000  0.000000  0.000000  0.000000
              occ5     2.000000  2.000000  2.000000  2.000000  2.000000  2.000000
                       2.000000  2.000000  2.000000  2.000000  2.000000  2.000000
                       2.000000  2.000000  2.000000  2.000000  2.000000  2.000000
                       2.000000  2.000000  2.000000  2.000000  2.000000  2.000000
                       2.000000  2.000000  2.000000  2.000000  2.000000  2.000000
                       2.000000  2.000000  2.000000  2.000000  2.000000  2.000000
                       2.000000  2.000000  2.000000  2.000000  2.000000  2.000000
                       2.000000  2.000000  2.000000  2.000000  2.000000  2.000000
                       2.000000  2.000000  2.000000  0.000000  0.000000  0.000000
                       0.000000  0.000000  0.000000  0.000000  0.000000  0.000000
                       0.000000  0.000000  0.000000  0.000000  0.000000  0.000000
                       0.000000  0.000000  0.000000  0.000000  0.000000  0.000000
                       0.000000  0.000000  0.000000  0.000000  0.000000  0.000000
                       0.000000  0.000000  0.000000  0.000000  0.000000  0.000000
                       0.000000  0.000000  0.000000  0.000000  0.000000  0.000000
                       0.000000  0.000000  0.000000  0.000000  0.000000  0.000000
                       0.000000  0.000000  0.000000  0.000000  0.000000  0.000000
                       0.000000  0.000000  0.000000  0.000000  0.000000  0.000000
                       0.000000  0.000000  0.000000  0.000000  0.000000  0.000000
                       0.000000  0.000000  0.000000  0.000000  0.000000  0.000000
              occ6     2.000000  2.000000  2.000000  2.000000  2.000000  2.000000
                       2.000000  2.000000  2.000000  2.000000  2.000000  2.000000
                       2.000000  2.000000  2.000000  2.000000  2.000000  2.000000
                       2.000000  2.000000  2.000000  2.000000  2.000000  2.000000
                       2.000000  2.000000  2.000000  2.000000  2.000000  2.000000
                       2.000000  2.000000  2.000000  2.000000  2.000000  2.000000
                       2.000000  2.000000  2.000000  2.000000  2.000000  2.000000
                       2.000000  2.000000  2.000000  2.000000  2.000000  2.000000
                       2.000000  2.000000  2.000000  0.000000  0.000000  0.000000
                       0.000000  0.000000  0.000000  0.000000  0.000000  0.000000
                       0.000000  0.000000  0.000000  0.000000  0.000000  0.000000
                       0.000000  0.000000  0.000000  0.000000  0.000000  0.000000
                       0.000000  0.000000  0.000000  0.000000  0.000000  0.000000
                       0.000000  0.000000  0.000000  0.000000  0.000000  0.000000
                       0.000000  0.000000  0.000000  0.000000  0.000000  0.000000
                       0.000000  0.000000  0.000000  0.000000  0.000000  0.000000
                       0.000000  0.000000  0.000000  0.000000  0.000000  0.000000
                       0.000000  0.000000  0.000000  0.000000  0.000000  0.000000
                       0.000000  0.000000  0.000000  0.000000  0.000000  0.000000
                       0.000000  0.000000  0.000000  0.000000  0.000000  0.000000
        optdriver1          0
        optdriver2          0
        optdriver3          0
        optdriver4          1
        optdriver5          1
        optdriver6          1
            prtwf1          1
            prtwf2          1
            prtwf3          1
            prtwf4          3
            prtwf5          3
            prtwf6          3
            rfdir1          0       0       0
            rfdir2          0       0       0
            rfdir3          0       0       0
            rfdir4          1       0       0
            rfdir5          0       1       0
            rfdir6          0       0       1
           rfelfd1          0
           rfelfd2          0
           rfelfd3          0
           rfelfd4          2
           rfelfd5          2
           rfelfd6          2
            rprim      1.0000000000E+00  0.0000000000E+00  0.0000000000E+00
                       0.0000000000E+00  1.0000000000E+00  0.0000000000E+00
                       0.0000000000E+00  0.0000000000E+00  3.7552899407E+00
           shiftk      5.00000000E-01  5.00000000E-01  5.00000000E-01
          spgroup          99
           strten1     1.3213522952E-02  1.3213522952E-02  1.3236361749E-02
                       0.0000000000E+00  0.0000000000E+00  0.0000000000E+00
           symrel      1  0  0   0  1  0   0  0  1       1  0  0   0 -1  0   0  0  1
                      -1  0  0   0 -1  0   0  0  1      -1  0  0   0  1  0   0  0  1
                       0  1  0   1  0  0   0  0  1       0  1  0  -1  0  0   0  0  1
                       0 -1  0  -1  0  0   0  0  1       0 -1  0   1  0  0   0  0  1
            tnons      0.0000000  0.0000000  0.0000000     0.0000000  0.0000000  0.0000000
                       0.0000000  0.0000000  0.0000000     0.0000000  0.0000000  0.0000000
                       0.5000000  0.5000000  0.0000000     0.5000000  0.5000000  0.0000000
                       0.5000000  0.5000000  0.0000000     0.5000000  0.5000000  0.0000000
           tolwfr      1.00000000E-20
            typat      1  2  2  2  3  3
           vdw_xc           5
              wtk1       0.02000    0.04000    0.04000    0.04000    0.04000    0.02000
                         0.04000    0.04000    0.04000    0.02000    0.04000    0.04000
                         0.02000    0.04000    0.02000    0.02000    0.04000    0.04000
                         0.04000    0.04000    0.02000    0.04000    0.04000    0.04000
                         0.02000    0.04000    0.04000    0.02000    0.04000    0.02000
              wtk2       0.02000    0.04000    0.04000    0.04000    0.04000    0.02000
                         0.04000    0.04000    0.04000    0.02000    0.04000    0.04000
                         0.02000    0.04000    0.02000    0.02000    0.04000    0.04000
                         0.04000    0.04000    0.02000    0.04000    0.04000    0.04000
                         0.02000    0.04000    0.04000    0.02000    0.04000    0.02000
              wtk3       0.00500    0.00500    0.00500    0.00500    0.00500    0.00500
                         0.00500    0.00500    0.00500    0.00500    0.00500    0.00500
                         0.00500    0.00500    0.00500    0.00500    0.00500    0.00500
                         0.00500    0.00500    0.00500    0.00500    0.00500    0.00500
                         0.00500    0.00500    0.00500    0.00500    0.00500    0.00500
                         0.00500    0.00500    0.00500    0.00500    0.00500    0.00500
                         0.00500    0.00500    0.00500    0.00500    0.00500    0.00500
                         0.00500    0.00500    0.00500    0.00500    0.00500    0.00500
                         0.00500    0.00500
              wtk4       0.00500    0.00500    0.00500    0.00500    0.00500    0.00500
                         0.00500    0.00500    0.00500    0.00500    0.00500    0.00500
                         0.00500    0.00500    0.00500    0.00500    0.00500    0.00500
                         0.00500    0.00500    0.00500    0.00500    0.00500    0.00500
                         0.00500    0.00500    0.00500    0.00500    0.00500    0.00500
                         0.00500    0.00500    0.00500    0.00500    0.00500    0.00500
                         0.00500    0.00500    0.00500    0.00500    0.00500    0.00500
                         0.00500    0.00500    0.00500    0.00500    0.00500    0.00500
                         0.00500    0.00500
              wtk5       0.00500    0.00500    0.00500    0.00500    0.00500    0.00500
                         0.00500    0.00500    0.00500    0.00500    0.00500    0.00500
                         0.00500    0.00500    0.00500    0.00500    0.00500    0.00500
                         0.00500    0.00500    0.00500    0.00500    0.00500    0.00500
                         0.00500    0.00500    0.00500    0.00500    0.00500    0.00500
                         0.00500    0.00500    0.00500    0.00500    0.00500    0.00500
                         0.00500    0.00500    0.00500    0.00500    0.00500    0.00500
                         0.00500    0.00500    0.00500    0.00500    0.00500    0.00500
                         0.00500    0.00500
              wtk6       0.00500    0.00500    0.00500    0.00500    0.00500    0.00500
                         0.00500    0.00500    0.00500    0.00500    0.00500    0.00500
                         0.00500    0.00500    0.00500    0.00500    0.00500    0.00500
                         0.00500    0.00500    0.00500    0.00500    0.00500    0.00500
                         0.00500    0.00500    0.00500    0.00500    0.00500    0.00500
                         0.00500    0.00500    0.00500    0.00500    0.00500    0.00500
                         0.00500    0.00500    0.00500    0.00500    0.00500    0.00500
                         0.00500    0.00500    0.00500    0.00500    0.00500    0.00500
                         0.00500    0.00500
                       outvars : Printing only first  50 k-points.
           xangst      2.0538509643E+00  0.0000000000E+00  4.6664635074E+00
                       0.0000000000E+00  2.0538509643E+00  4.6982402675E+00
                       2.0538509643E+00  0.0000000000E+00  7.7691247742E+00
                       0.0000000000E+00  2.0538509643E+00  1.0759148224E+01
                       2.0538509643E+00  2.0538509643E+00  9.2641442120E+00
                       0.0000000000E+00  0.0000000000E+00  9.2641442120E+00
            xcart      3.8812158402E+00  0.0000000000E+00  8.8183380380E+00
                       0.0000000000E+00  3.8812158402E+00  8.8783874121E+00
                       3.8812158402E+00  0.0000000000E+00  1.4681518115E+01
                       0.0000000000E+00  3.8812158402E+00  2.0331843567E+01
                       3.8812158402E+00  3.8812158402E+00  1.7506695416E+01
                       0.0000000000E+00  0.0000000000E+00  1.7506695416E+01
             xred      5.0000000000E-01  0.0000000000E+00  3.0251400000E-01
                       0.0000000000E+00  5.0000000000E-01  3.0457400000E-01
                       5.0000000000E-01  0.0000000000E+00  5.0365100000E-01
                       0.0000000000E+00  5.0000000000E-01  6.9748600000E-01
                       5.0000000000E-01  5.0000000000E-01  6.0056900000E-01
                       0.0000000000E+00  0.0000000000E+00  6.0056900000E-01
            znucl       50.00000   34.00000   30.00000

- Timing analysis has been suppressed with timopt=0

 Suggested references for the acknowledgment of ABINIT usage.

 Calculation completed.
.Delivered   6 WARNINGs and   0 COMMENTs to log file.