.Version 9.2.2 of ABINIT

 ABINIT is a project of the Universite Catholique de Louvain,
 Corning Inc. and other collaborators, see ~abinit/doc/developers/contributors.txt .
 acknowledgments of the ABINIT effort.

.Starting date : Tue 27 Feb 2024.
- ( at 09h40 )

- The starting date is more than 3 years after the initial release
- of this version of ABINIT, namely Nov 2020.
- This version of ABINIT is not supported anymore.
- Action: please, switch to a more recent version of ABINIT.
- input  file    -> Cs2TiI6.in
- output file    -> Cs2TiI6.out
- root for input  files -> Cs2TiI6i
- root for output files -> Cs2TiI6o

 Symmetries : space group P4 m m (# 99); Bravais tP (primitive tetrag.)
     intxc =       0    ionmov =       0      iscf =      17    lmnmax =       6
     lnmax =       6     mgfft =     216  mpssoang =       3    mqgrid =   10359
     natom =      14  nloc_mem =       1    nspden =       1   nspinor =       1
    nsppol =       1      nsym =       8    n1xccc =    2501    ntypat =       2
    occopt =       1   xclevel =       2
-    mband =         107        mffmem =           1         mkmem =           2
       mpw =       14938          nfft =      279936          nkpt =          10
  Rough estimation (10% accuracy) of disk space for files :

------------- Echo of variables that govern the present computation ------------
-
- outvars: echo of selected default values
-   iomode0 =  0 , fftalg0 =112 , wfoptalg0 =  0
-
- outvars: echo of global parameters not present in the input file
-  max_nthreads =    0
-
 -outvars: echo values of preprocessed input variables --------
            acell      7.7624316804E+00  7.7624316804E+00  7.7624316804E+00 Bohr
              amu      1.18710000E+02  7.89600000E+01
           diemac      1.20000000E+01
             ecut      2.25000000E+01 Hartree
-          fftalg         112
             iscf          17
              ixc          11
              kpt      6.25000000E-02  6.25000000E-02  5.00000000E-01
                       1.87500000E-01  6.25000000E-02  5.00000000E-01
                       3.12500000E-01  6.25000000E-02  5.00000000E-01
                       4.37500000E-01  6.25000000E-02  5.00000000E-01
                       1.87500000E-01  1.87500000E-01  5.00000000E-01
                       3.12500000E-01  1.87500000E-01  5.00000000E-01
                       4.37500000E-01  1.87500000E-01  5.00000000E-01
                       3.12500000E-01  3.12500000E-01  5.00000000E-01
                       4.37500000E-01  3.12500000E-01  5.00000000E-01
                       4.37500000E-01  4.37500000E-01  5.00000000E-01
         kptrlatt        8    0    0      0    8    0      0    0    1
          kptrlen      6.20994534E+01
P           mkmem           2
            natom          14
            nband         107
            ngfft          36      36     216
             nkpt          10
            nstep         150
             nsym           8
           ntypat           2
              occ      2.000000  2.000000  2.000000  2.000000  2.000000  2.000000
                       2.000000  2.000000  2.000000  2.000000  2.000000  2.000000
                       2.000000  2.000000  2.000000  2.000000  2.000000  2.000000
                       2.000000  2.000000  2.000000  2.000000  2.000000  2.000000
                       2.000000  2.000000  2.000000  2.000000  2.000000  2.000000
                       2.000000  2.000000  2.000000  2.000000  2.000000  2.000000
                       2.000000  2.000000  2.000000  2.000000  2.000000  2.000000
                       2.000000  2.000000  2.000000  2.000000  2.000000  2.000000
                       2.000000  2.000000  2.000000  2.000000  2.000000  2.000000
                       2.000000  2.000000  2.000000  2.000000  2.000000  2.000000
                       2.000000  2.000000  2.000000  2.000000  2.000000  2.000000
                       2.000000  2.000000  2.000000  2.000000  2.000000  2.000000
                       2.000000  2.000000  2.000000  2.000000  2.000000  2.000000
                       2.000000  2.000000  2.000000  2.000000  2.000000  2.000000
                       2.000000  2.000000  2.000000  2.000000  2.000000  2.000000
                       2.000000  2.000000  2.000000  2.000000  2.000000  2.000000
                       2.000000  2.000000  2.000000  2.000000  2.000000  2.000000
                       2.000000  2.000000  2.000000  0.000000  0.000000
           prtcif           1
            rprim      1.0000000000E+00  0.0000000000E+00  0.0000000000E+00
                       0.0000000000E+00  1.0000000000E+00  0.0000000000E+00
                       0.0000000000E+00  0.0000000000E+00  6.2496953284E+00
           shiftk      5.00000000E-01  5.00000000E-01  5.00000000E-01
          spgroup          99
           symrel      1  0  0   0  1  0   0  0  1       1  0  0   0 -1  0   0  0  1
                      -1  0  0   0 -1  0   0  0  1      -1  0  0   0  1  0   0  0  1
                       0  1  0   1  0  0   0  0  1       0  1  0  -1  0  0   0  0  1
                       0 -1  0  -1  0  0   0  0  1       0 -1  0   1  0  0   0  0  1
            tnons      0.0000000  0.0000000  0.0000000     0.0000000  0.0000000  0.0000000
                      -0.0000000  0.0000000  0.0000000    -0.0000000  0.0000000  0.0000000
                       0.5000000  0.5000000  0.0000000     0.5000000  0.5000000  0.0000000
                       0.5000000  0.5000000  0.0000000     0.5000000  0.5000000  0.0000000
           toldfe      1.00000000E-06 Hartree
            typat      1  1  1  1  1  1  1  2  2  2  2  2  2  2
           vdw_xc           5
              wtk        0.06250    0.12500    0.12500    0.12500    0.06250    0.12500
                         0.12500    0.06250    0.12500    0.06250
           xangst      2.0538509643E+00  0.0000000000E+00  4.6664556527E+00
                       0.0000000000E+00  2.0538509643E+00  7.4160942986E+00
                       2.0538509643E+00  0.0000000000E+00  1.0102195028E+01
                       0.0000000000E+00  2.0538509643E+00  1.2851833674E+01
                       2.0538509643E+00  0.0000000000E+00  1.5537934403E+01
                       0.0000000000E+00  2.0538509643E+00  1.8287547377E+01
                       2.0538509643E+00  0.0000000000E+00  2.0973648106E+01
                       0.0000000000E+00  2.0538509643E+00  4.6982374470E+00
                       2.0538509643E+00  0.0000000000E+00  7.3843381762E+00
                       0.0000000000E+00  2.0538509643E+00  1.0133951150E+01
                       2.0538509643E+00  0.0000000000E+00  1.2820051879E+01
                       0.0000000000E+00  2.0538509643E+00  1.5569690525E+01
                       2.0538509643E+00  0.0000000000E+00  1.8255791255E+01
                       0.0000000000E+00  2.0538509643E+00  2.1005429901E+01
            xcart      3.8812158402E+00  0.0000000000E+00  8.8183231948E+00
                       0.0000000000E+00  3.8812158402E+00  1.4014387200E+01
                       3.8812158402E+00  0.0000000000E+00  1.9090381944E+01
                       0.0000000000E+00  3.8812158402E+00  2.4286445949E+01
                       3.8812158402E+00  0.0000000000E+00  2.9362440692E+01
                       0.0000000000E+00  3.8812158402E+00  3.4558456185E+01
                       3.8812158402E+00  0.0000000000E+00  3.9634450928E+01
                       0.0000000000E+00  3.8812158402E+00  8.8783820821E+00
                       3.8812158402E+00  0.0000000000E+00  1.3954376826E+01
                       0.0000000000E+00  3.8812158402E+00  1.9150392318E+01
                       3.8812158402E+00  0.0000000000E+00  2.4226387062E+01
                       0.0000000000E+00  3.8812158402E+00  2.9422451067E+01
                       3.8812158402E+00  0.0000000000E+00  3.4498445810E+01
                       0.0000000000E+00  3.8812158402E+00  3.9694509816E+01
             xred      5.0000000000E-01  0.0000000000E+00  1.8177300000E-01
                       0.0000000000E+00  5.0000000000E-01  2.8888000000E-01
                       5.0000000000E-01  0.0000000000E+00  3.9351200000E-01
                       0.0000000000E+00  5.0000000000E-01  5.0061900000E-01
                       5.0000000000E-01  0.0000000000E+00  6.0525100000E-01
                       0.0000000000E+00  5.0000000000E-01  7.1235700000E-01
                       5.0000000000E-01  0.0000000000E+00  8.1698900000E-01
                       0.0000000000E+00  5.0000000000E-01  1.8301100000E-01
                       5.0000000000E-01  0.0000000000E+00  2.8764300000E-01
                       0.0000000000E+00  5.0000000000E-01  3.9474900000E-01
                       5.0000000000E-01  0.0000000000E+00  4.9938100000E-01
                       0.0000000000E+00  5.0000000000E-01  6.0648800000E-01
                       5.0000000000E-01  0.0000000000E+00  7.1112000000E-01
                       0.0000000000E+00  5.0000000000E-01  8.1822700000E-01
            znucl       50.00000   34.00000

 chkinp: Checking input parameters for consistency.

== DATASET  1 ==================================================================
-   mpi_nproc: 6, omp_nthreads: -1 (-1 if OMP is not activated)

--- !DatasetInfo
iteration_state: {dtset: 1, }
dimensions: {natom: 14, nkpt: 10, mband: 107, nsppol: 1, nspinor: 1, nspden: 1, mpw: 14938, }
cutoff_energies: {ecut:  22.5, pawecutdg:  -1.0, }
electrons: {nelect:   2.10000000E+02, charge:   0.00000000E+00, occopt:   1.00000000E+00, tsmear:   1.00000000E-02, }
meta: {optdriver: 0, ionmov: 0, optcell: 0, iscf: 17, paral_kgb: 0, }
...

 Real(R)+Recip(G) space primitive vectors, cartesian coordinates (Bohr,Bohr^-1):
 R(1)=  7.7624317  0.0000000  0.0000000  G(1)=  0.1288256  0.0000000  0.0000000
 R(2)=  0.0000000  7.7624317  0.0000000  G(2)=  0.0000000  0.1288256  0.0000000
 R(3)=  0.0000000  0.0000000 48.5128330  G(3)=  0.0000000  0.0000000  0.0206131
 Unit cell volume ucvol=  2.9231575E+03 bohr^3
 Angles (23,13,12)=  9.00000000E+01  9.00000000E+01  9.00000000E+01 degrees

 getcut: wavevector=  0.0000  0.0000  0.0000  ngfft=  36  36 216
         ecut(hartree)=     22.500   => boxcut(ratio)=   2.08517

--- Pseudopotential description ------------------------------------------------
- pspini: atom type   1  psp file is ../../../Psps_for_tests/ATOMICDATA_NC/Sn.psp8
- pspatm: opening atomic psp file    ../../../Psps_for_tests/ATOMICDATA_NC/Sn.psp8
- Sn    ONCVPSP  r_core=  2.27  2.62  1.86
- 50.00000  14.00000    150810                znucl, zion, pspdat
    8   11    2    4       600   0.00000      pspcod,pspxc,lmax,lloc,mmax,r2well
    5.99000000000000    6.50000000000000    0.00000000000000   rchrg,fchrg,qchrg
     nproj     2     2     2
     extension_switch     1
  pspatm : epsatm=   32.65190642
         --- l  ekb(1:nproj) -->
             0    5.462393    0.682281
             1    4.443814    0.825686
             2   -5.382195   -1.704077
 pspatm: atomic psp has been read  and splines computed

- pspini: atom type   2  psp file is ../../../Psps_for_tests/ATOMICDATA_NC/Se.psp8
- pspatm: opening atomic psp file    ../../../Psps_for_tests/ATOMICDATA_NC/Se.psp8
[...]
       0.000000000000      0.500000000000      0.183011000000
       0.500000000000      0.000000000000      0.287643000000
       0.000000000000      0.500000000000      0.394749000000
       0.500000000000      0.000000000000      0.499381000000
       0.000000000000      0.500000000000      0.606488000000
       0.500000000000      0.000000000000      0.711120000000
       0.000000000000      0.500000000000      0.818227000000
 rms dE/dt=  2.6940E-01; max dE/dt=  7.1060E-01; dE/dt below (all hartree)
    1       0.000000000000      0.000000000000      0.636738571730
    2       0.000000000000      0.000000000000      0.605789414938
    3       0.000000000000      0.000000000000     -0.182239650803
    4       0.000000000000      0.000000000000      0.050079296852
    5       0.000000000000      0.000000000000      0.108663914951
    6       0.000000000000      0.000000000000     -0.496966868564
    7       0.000000000000      0.000000000000     -0.682492801135
    8       0.000000000000      0.000000000000      0.710601545043
    9       0.000000000000      0.000000000000      0.452788694663
   10       0.000000000000      0.000000000000     -0.092502298230
   11       0.000000000000      0.000000000000     -0.071518285822
   12       0.000000000000      0.000000000000      0.200959585443
   13       0.000000000000      0.000000000000     -0.618308505490
   14       0.000000000000      0.000000000000     -0.607649353413

 cartesian coordinates (angstrom) at end:
    1      2.05385096425820     0.00000000000000     4.66645565267078
    2      0.00000000000000     2.05385096425820     7.41609429862266
    3      2.05385096425820     0.00000000000000    10.10219502783023
    4      0.00000000000000     2.05385096425820    12.85183367378211
    5      2.05385096425820     0.00000000000000    15.53793440298969
    6      0.00000000000000     2.05385096425820    18.28754737705601
    7      2.05385096425820     0.00000000000000    20.97364810626359
    8      0.00000000000000     2.05385096425820     4.69823744698571
    9      2.05385096425820     0.00000000000000     7.38433817619329
   10      0.00000000000000     2.05385096425820    10.13395115025961
   11      2.05385096425820     0.00000000000000    12.82005187946719
   12      0.00000000000000     2.05385096425820    15.56969052541906
   13      2.05385096425820     0.00000000000000    18.25579125462664
   14      0.00000000000000     2.05385096425820    21.00542990057851

 cartesian forces (hartree/bohr) at end:
    1     -0.00000000000000    -0.00000000000000    -0.01310462789174
    2     -0.00000000000000    -0.00000000000000    -0.01246666975012
    3     -0.00000000000000    -0.00000000000000     0.00377705416457
    4     -0.00000000000000    -0.00000000000000    -0.00101176011896
    5     -0.00000000000000    -0.00000000000000    -0.00221937085747
    6     -0.00000000000000    -0.00000000000000     0.01026455856766
    7     -0.00000000000000    -0.00000000000000     0.01408882363440
    8     -0.00000000000000    -0.00000000000000    -0.01462717293248
    9     -0.00000000000000    -0.00000000000000    -0.00931285021864
   10     -0.00000000000000    -0.00000000000000     0.00192728891682
   11     -0.00000000000000    -0.00000000000000     0.00149474331793
   12     -0.00000000000000    -0.00000000000000    -0.00412187097474
   13     -0.00000000000000    -0.00000000000000     0.01276578616862
   14     -0.00000000000000    -0.00000000000000     0.01254606797415
 frms,max,avg= 5.5532308E-03 1.4627173E-02   0.000E+00  0.000E+00 -2.053E-05 h/b

 cartesian forces (eV/Angstrom) at end:
    1     -0.00000000000000    -0.00000000000000    -0.67386700355947
    2     -0.00000000000000    -0.00000000000000    -0.64106187968723
    3     -0.00000000000000    -0.00000000000000     0.19422391793122
    4     -0.00000000000000    -0.00000000000000    -0.05202679277244
    5     -0.00000000000000    -0.00000000000000    -0.11412462847974
    6     -0.00000000000000    -0.00000000000000     0.52782477930660
    7     -0.00000000000000    -0.00000000000000     0.72447637923227
    8     -0.00000000000000    -0.00000000000000    -0.75215941085784
    9     -0.00000000000000    -0.00000000000000    -0.47888597244285
   10     -0.00000000000000    -0.00000000000000     0.09910517247058
   11     -0.00000000000000    -0.00000000000000     0.07686278535078
   12     -0.00000000000000    -0.00000000000000    -0.21195510973345
   13     -0.00000000000000    -0.00000000000000     0.65644306306113
   14     -0.00000000000000    -0.00000000000000     0.64514470018045
 frms,max,avg= 2.8555859E-01 7.5215941E-01   0.000E+00  0.000E+00 -1.056E-03 e/A
 length scales=  7.762431680422  7.762431680422  7.762431680422 bohr
              =  4.107701928516  4.107701928516  4.107701928516 angstroms
 prteigrs : about to open file Cs2TiI6o_EIG
 Fermi (or HOMO) energy (hartree) =   0.15344   Average Vxc (hartree)=  -0.31754
 Eigenvalues (hartree) for nkpt=  10  k points:
 kpt#   1, nband=107, wtk=  0.06250, kpt=  0.0625  0.0625  0.5000 (reduced coord)
  -1.66991   -1.66939   -1.66762   -1.66706   -1.66685   -1.66581   -1.66581   -1.66567
  -1.66528   -1.66523   -1.66358   -1.66343   -1.66292   -1.66272   -1.66248   -1.66235
  -1.66212   -1.66065   -1.66045   -1.66019   -1.65980   -1.65827   -1.65761   -1.65439
  -1.65418   -1.64257   -1.64151   -1.64119   -1.64032   -1.63969   -1.63872   -1.63867
  -1.63781   -1.63718   -1.63674   -0.66307   -0.66301   -0.66156   -0.66143   -0.66140
  -0.66137   -0.66059   -0.66052   -0.66049   -0.66043   -0.65842   -0.65744   -0.65728
  -0.65638   -0.65637   -0.65626   -0.65597   -0.65551   -0.65546   -0.65511   -0.65510
  -0.65419   -0.65404   -0.65396   -0.65395   -0.65371   -0.65359   -0.65311   -0.65304
  -0.65292   -0.65289   -0.65282   -0.65278   -0.65259   -0.65250   -0.41696   -0.40879
  -0.39575   -0.37990   -0.36270   -0.34822   -0.34526   -0.13412   -0.13281   -0.11799
  -0.11019   -0.09028   -0.08075   -0.06022   -0.04664   -0.02983   -0.02871   -0.01995
  -0.00575   -0.00493   -0.00445    0.01122    0.01178    0.02417    0.02973    0.03448
   0.03988    0.04205    0.04348    0.04832    0.06581    0.06712    0.08694    0.09980
   0.12747    0.20102    0.23027
 prteigrs : prtvol=0 or 1, do not print more k-points.

--- !EnergyTerms
iteration_state     : {dtset: 1, }
comment             : Components of total free energy in Hartree
kinetic             :  8.51165286052052E+02
hartree             :  1.62476926430878E+03
xc                  : -3.21111057885584E+02
Ewald energy        :  4.84661859267764E+02
psp_core            :  3.12717303227399E+01
local_psp           : -3.56130746867858E+03
non_local_psp       : -5.01843682778766E+02
VdWaals_dft_d       : -1.94414950106955E-01
total_energy        : -1.39258848434170E+03
...

--- !EnergyTermsDC
iteration_state     : {dtset: 1, }
comment             : '"Double-counting" decomposition of free energy'
band_energy         : -1.67535747456179E+02
Ewald energy        :  4.84661859267764E+02
psp_core            :  3.12717303227399E+01
xc_dc               : -1.74079191412188E+03
VdWaals_dft_d       : -1.94414950106955E-01
total_energy_dc     : -1.39258848693766E+03
...

 Cartesian components of stress tensor (hartree/bohr^3)
  sigma(1 1)=  1.36995102E-02  sigma(3 2)=  0.00000000E+00
  sigma(2 2)=  1.36995102E-02  sigma(3 1)=  0.00000000E+00
  sigma(3 3)=  1.34139559E-02  sigma(2 1)=  0.00000000E+00

-Cartesian components of stress tensor (GPa)         [Pressure= -4.0025E+02 GPa]
- sigma(1 1)=  4.03053436E+02  sigma(3 2)=  0.00000000E+00
- sigma(2 2)=  4.03053436E+02  sigma(3 1)=  0.00000000E+00
- sigma(3 3)=  3.94652141E+02  sigma(2 1)=  0.00000000E+00

== END DATASET(S) ==============================================================

 -outvars: echo values of variables after computation  --------
            acell      7.7624316804E+00  7.7624316804E+00  7.7624316804E+00 Bohr
              amu      1.18710000E+02  7.89600000E+01
           diemac      1.20000000E+01
             ecut      2.25000000E+01 Hartree
           etotal     -1.3925884869E+03
            fcart     -0.0000000000E+00 -0.0000000000E+00 -1.3104627892E-02
                      -0.0000000000E+00 -0.0000000000E+00 -1.2466669750E-02
                      -0.0000000000E+00 -0.0000000000E+00  3.7770541646E-03
                      -0.0000000000E+00 -0.0000000000E+00 -1.0117601190E-03
                      -0.0000000000E+00 -0.0000000000E+00 -2.2193708575E-03
                      -0.0000000000E+00 -0.0000000000E+00  1.0264558568E-02
                      -0.0000000000E+00 -0.0000000000E+00  1.4088823634E-02
                      -0.0000000000E+00 -0.0000000000E+00 -1.4627172932E-02
                      -0.0000000000E+00 -0.0000000000E+00 -9.3128502186E-03
                      -0.0000000000E+00 -0.0000000000E+00  1.9272889168E-03
                      -0.0000000000E+00 -0.0000000000E+00  1.4947433179E-03
                      -0.0000000000E+00 -0.0000000000E+00 -4.1218709747E-03
                      -0.0000000000E+00 -0.0000000000E+00  1.2765786169E-02
                      -0.0000000000E+00 -0.0000000000E+00  1.2546067974E-02
-          fftalg         112
             iscf          17
              ixc          11
              kpt      6.25000000E-02  6.25000000E-02  5.00000000E-01
                       1.87500000E-01  6.25000000E-02  5.00000000E-01
                       3.12500000E-01  6.25000000E-02  5.00000000E-01
                       4.37500000E-01  6.25000000E-02  5.00000000E-01
                       1.87500000E-01  1.87500000E-01  5.00000000E-01
                       3.12500000E-01  1.87500000E-01  5.00000000E-01
                       4.37500000E-01  1.87500000E-01  5.00000000E-01
                       3.12500000E-01  3.12500000E-01  5.00000000E-01
                       4.37500000E-01  3.12500000E-01  5.00000000E-01
                       4.37500000E-01  4.37500000E-01  5.00000000E-01
         kptrlatt        8    0    0      0    8    0      0    0    1
          kptrlen      6.20994534E+01
P           mkmem           2
            natom          14
            nband         107
            ngfft          36      36     216
             nkpt          10
            nstep         150
             nsym           8
           ntypat           2
              occ      2.000000  2.000000  2.000000  2.000000  2.000000  2.000000
                       2.000000  2.000000  2.000000  2.000000  2.000000  2.000000
                       2.000000  2.000000  2.000000  2.000000  2.000000  2.000000
                       2.000000  2.000000  2.000000  2.000000  2.000000  2.000000
                       2.000000  2.000000  2.000000  2.000000  2.000000  2.000000
                       2.000000  2.000000  2.000000  2.000000  2.000000  2.000000
                       2.000000  2.000000  2.000000  2.000000  2.000000  2.000000
                       2.000000  2.000000  2.000000  2.000000  2.000000  2.000000
                       2.000000  2.000000  2.000000  2.000000  2.000000  2.000000
                       2.000000  2.000000  2.000000  2.000000  2.000000  2.000000
                       2.000000  2.000000  2.000000  2.000000  2.000000  2.000000
                       2.000000  2.000000  2.000000  2.000000  2.000000  2.000000
                       2.000000  2.000000  2.000000  2.000000  2.000000  2.000000
                       2.000000  2.000000  2.000000  2.000000  2.000000  2.000000
                       2.000000  2.000000  2.000000  2.000000  2.000000  2.000000
                       2.000000  2.000000  2.000000  2.000000  2.000000  2.000000
                       2.000000  2.000000  2.000000  2.000000  2.000000  2.000000
                       2.000000  2.000000  2.000000  0.000000  0.000000
           prtcif           1
            rprim      1.0000000000E+00  0.0000000000E+00  0.0000000000E+00
                       0.0000000000E+00  1.0000000000E+00  0.0000000000E+00
                       0.0000000000E+00  0.0000000000E+00  6.2496953284E+00
           shiftk      5.00000000E-01  5.00000000E-01  5.00000000E-01
          spgroup          99
           strten      1.3699510152E-02  1.3699510152E-02  1.3413955872E-02
                       0.0000000000E+00  0.0000000000E+00  0.0000000000E+00
           symrel      1  0  0   0  1  0   0  0  1       1  0  0   0 -1  0   0  0  1
                      -1  0  0   0 -1  0   0  0  1      -1  0  0   0  1  0   0  0  1
                       0  1  0   1  0  0   0  0  1       0  1  0  -1  0  0   0  0  1
                       0 -1  0  -1  0  0   0  0  1       0 -1  0   1  0  0   0  0  1
            tnons      0.0000000  0.0000000  0.0000000     0.0000000  0.0000000  0.0000000
                      -0.0000000  0.0000000  0.0000000    -0.0000000  0.0000000  0.0000000
                       0.5000000  0.5000000  0.0000000     0.5000000  0.5000000  0.0000000
                       0.5000000  0.5000000  0.0000000     0.5000000  0.5000000  0.0000000
           toldfe      1.00000000E-06 Hartree
            typat      1  1  1  1  1  1  1  2  2  2  2  2  2  2
           vdw_xc           5
              wtk        0.06250    0.12500    0.12500    0.12500    0.06250    0.12500
                         0.12500    0.06250    0.12500    0.06250
           xangst      2.0538509643E+00  0.0000000000E+00  4.6664556527E+00
                       0.0000000000E+00  2.0538509643E+00  7.4160942986E+00
                       2.0538509643E+00  0.0000000000E+00  1.0102195028E+01
                       0.0000000000E+00  2.0538509643E+00  1.2851833674E+01
                       2.0538509643E+00  0.0000000000E+00  1.5537934403E+01
                       0.0000000000E+00  2.0538509643E+00  1.8287547377E+01
                       2.0538509643E+00  0.0000000000E+00  2.0973648106E+01
                       0.0000000000E+00  2.0538509643E+00  4.6982374470E+00
                       2.0538509643E+00  0.0000000000E+00  7.3843381762E+00
                       0.0000000000E+00  2.0538509643E+00  1.0133951150E+01
                       2.0538509643E+00  0.0000000000E+00  1.2820051879E+01
                       0.0000000000E+00  2.0538509643E+00  1.5569690525E+01
                       2.0538509643E+00  0.0000000000E+00  1.8255791255E+01
                       0.0000000000E+00  2.0538509643E+00  2.1005429901E+01
            xcart      3.8812158402E+00  0.0000000000E+00  8.8183231948E+00
                       0.0000000000E+00  3.8812158402E+00  1.4014387200E+01
                       3.8812158402E+00  0.0000000000E+00  1.9090381944E+01
                       0.0000000000E+00  3.8812158402E+00  2.4286445949E+01
                       3.8812158402E+00  0.0000000000E+00  2.9362440692E+01
                       0.0000000000E+00  3.8812158402E+00  3.4558456185E+01
                       3.8812158402E+00  0.0000000000E+00  3.9634450928E+01
                       0.0000000000E+00  3.8812158402E+00  8.8783820821E+00
                       3.8812158402E+00  0.0000000000E+00  1.3954376826E+01
                       0.0000000000E+00  3.8812158402E+00  1.9150392318E+01
                       3.8812158402E+00  0.0000000000E+00  2.4226387062E+01
                       0.0000000000E+00  3.8812158402E+00  2.9422451067E+01
                       3.8812158402E+00  0.0000000000E+00  3.4498445810E+01
                       0.0000000000E+00  3.8812158402E+00  3.9694509816E+01
             xred      5.0000000000E-01  0.0000000000E+00  1.8177300000E-01
                       0.0000000000E+00  5.0000000000E-01  2.8888000000E-01
                       5.0000000000E-01  0.0000000000E+00  3.9351200000E-01
                       0.0000000000E+00  5.0000000000E-01  5.0061900000E-01
                       5.0000000000E-01  0.0000000000E+00  6.0525100000E-01
                       0.0000000000E+00  5.0000000000E-01  7.1235700000E-01
                       5.0000000000E-01  0.0000000000E+00  8.1698900000E-01
                       0.0000000000E+00  5.0000000000E-01  1.8301100000E-01
                       5.0000000000E-01  0.0000000000E+00  2.8764300000E-01
                       0.0000000000E+00  5.0000000000E-01  3.9474900000E-01
                       5.0000000000E-01  0.0000000000E+00  4.9938100000E-01
                       0.0000000000E+00  5.0000000000E-01  6.0648800000E-01
                       5.0000000000E-01  0.0000000000E+00  7.1112000000E-01
                       0.0000000000E+00  5.0000000000E-01  8.1822700000E-01
            znucl       50.00000   34.00000

- Timing analysis has been suppressed with timopt=0

 Suggested references for the acknowledgment of ABINIT usage.

 Calculation completed.
.Delivered   0 WARNINGs and   0 COMMENTs to log file.