.Version 9.2.2 of ABINIT

 ABINIT is a project of the Universite Catholique de Louvain,
 Corning Inc. and other collaborators, see ~abinit/doc/developers/contributors.txt .
 acknowledgments of the ABINIT effort.

.Starting date : Sun 17 Mar 2024.
- ( at 21h30 )

- The starting date is more than 3 years after the initial release
- of this version of ABINIT, namely Nov 2020.
- This version of ABINIT is not supported anymore.
- Action: please, switch to a more recent version of ABINIT.
- input  file    -> Cs2TiI6.in
- output file    -> Cs2TiI6.out
- root for input  files -> Cs2TiI6i
- root for output files -> Cs2TiI6o

 Symmetries : space group P4 m m (# 99); Bravais tP (primitive tetrag.)
     intxc =       0    ionmov =       0      iscf =      17    lmnmax =       6
     lnmax =       6     mgfft =     288  mpssoang =       3    mqgrid =   13909
     natom =      20  nloc_mem =       1    nspden =       1   nspinor =       1
    nsppol =       1      nsym =       8    n1xccc =    2501    ntypat =       3
    occopt =       1   xclevel =       2
-    mband =         159        mffmem =           1         mkmem =           2
       mpw =       20052          nfft =      373248          nkpt =           6
  Rough estimation (10% accuracy) of disk space for files :

------------- Echo of variables that govern the present computation ------------
-
- outvars: echo of selected default values
-   iomode0 =  0 , fftalg0 =112 , wfoptalg0 =  0
-
- outvars: echo of global parameters not present in the input file
-  max_nthreads =    0
-
 -outvars: echo values of preprocessed input variables --------
            acell      7.7624316804E+00  7.7624316804E+00  7.7624316804E+00 Bohr
              amu      1.18710000E+02  7.89600000E+01  6.53900000E+01
           diemac      1.20000000E+01
             ecut      2.25000000E+01 Hartree
-          fftalg         112
             iscf          17
              ixc          11
              kpt      8.33333333E-02  8.33333333E-02  5.00000000E-01
                       2.50000000E-01  8.33333333E-02  5.00000000E-01
                       4.16666667E-01  8.33333333E-02  5.00000000E-01
                       2.50000000E-01  2.50000000E-01  5.00000000E-01
                       4.16666667E-01  2.50000000E-01  5.00000000E-01
                       4.16666667E-01  4.16666667E-01  5.00000000E-01
         kptrlatt        6    0    0      0    6    0      0    0    1
          kptrlen      4.65745901E+01
P           mkmem           2
            natom          20
            nband         159
            ngfft          36      36     288
             nkpt           6
            nstep         150
             nsym           8
           ntypat           3
              occ      2.000000  2.000000  2.000000  2.000000  2.000000  2.000000
                       2.000000  2.000000  2.000000  2.000000  2.000000  2.000000
                       2.000000  2.000000  2.000000  2.000000  2.000000  2.000000
                       2.000000  2.000000  2.000000  2.000000  2.000000  2.000000
                       2.000000  2.000000  2.000000  2.000000  2.000000  2.000000
                       2.000000  2.000000  2.000000  2.000000  2.000000  2.000000
                       2.000000  2.000000  2.000000  2.000000  2.000000  2.000000
                       2.000000  2.000000  2.000000  2.000000  2.000000  2.000000
                       2.000000  2.000000  2.000000  2.000000  2.000000  2.000000
                       2.000000  2.000000  2.000000  2.000000  2.000000  2.000000
                       2.000000  2.000000  2.000000  2.000000  2.000000  2.000000
                       2.000000  2.000000  2.000000  2.000000  2.000000  2.000000
                       2.000000  2.000000  2.000000  2.000000  2.000000  2.000000
                       2.000000  2.000000  2.000000  2.000000  2.000000  2.000000
                       2.000000  2.000000  2.000000  2.000000  2.000000  2.000000
                       2.000000  2.000000  2.000000  2.000000  2.000000  2.000000
                       2.000000  2.000000  2.000000  2.000000  2.000000  2.000000
                       2.000000  2.000000  2.000000  2.000000  2.000000  2.000000
                       2.000000  2.000000  2.000000  2.000000  2.000000  2.000000
                       2.000000  2.000000  2.000000  2.000000  2.000000  2.000000
                       2.000000  2.000000  2.000000  2.000000  2.000000  2.000000
                       2.000000  2.000000  2.000000  2.000000  2.000000  2.000000
                       2.000000  2.000000  2.000000  2.000000  2.000000  2.000000
                       2.000000  2.000000  2.000000  2.000000  2.000000  2.000000
                       2.000000  2.000000  2.000000  2.000000  2.000000  2.000000
                       2.000000  2.000000  2.000000  2.000000  2.000000  2.000000
                       0.000000  0.000000  0.000000
           prtcif           1
            prtwf           0
            rprim      1.0000000000E+00  0.0000000000E+00  0.0000000000E+00
                       0.0000000000E+00  1.0000000000E+00  0.0000000000E+00
                       1.0000000000E-15  1.0000000000E-15  8.3913010243E+00
           shiftk      5.00000000E-01  5.00000000E-01  5.00000000E-01
          spgroup          99
           symrel      1  0  0   0  1  0   0  0  1       1  0  0   0 -1  0   0  0  1
                      -1  0  0   0 -1  0   0  0  1      -1  0  0   0  1  0   0  0  1
                       0  1  0   1  0  0   0  0  1       0  1  0  -1  0  0   0  0  1
                       0 -1  0  -1  0  0   0  0  1       0 -1  0   1  0  0   0  0  1
            tnons      0.0000000  0.0000000  0.0000000     0.0000000 -0.0000000  0.0000000
                      -0.0000000 -0.0000000  0.0000000    -0.0000000  0.0000000  0.0000000
                       0.5000000  0.5000000  0.0000000     0.5000000  0.5000000  0.0000000
                       0.5000000  0.5000000  0.0000000     0.5000000  0.5000000  0.0000000
           toldfe      1.00000000E-07 Hartree
            typat      1  1  1  1  1  1  1  1  2  2  2  2  2  2  2  2  2  2  3  3
           vdw_xc           5
              wtk        0.11111    0.22222    0.22222    0.11111    0.22222    0.11111
           xangst      2.0538509643E+00  5.5610890249E-16  4.6664772030E+00
                       8.8378439303E-16  2.0538509643E+00  7.4161008824E+00
                       2.0538509643E+00  1.2038893889E-15  1.0102198262E+01
                       1.5315648795E-15  2.0538509643E+00  1.2851821942E+01
                       2.0538509643E+00  1.8516698753E-15  1.5537919322E+01
                       2.1793453659E-15  2.0538509643E+00  1.8287543001E+01
                       2.0538509643E+00  2.4994503618E-15  2.0973640381E+01
                       2.8271299600E-15  2.0538509643E+00  2.3723298529E+01
                       5.5989209596E-16  2.0538509643E+00  4.6982231183E+00
                       2.0538509643E+00  8.7999709185E-16  7.3843204982E+00
                       1.2076766901E-15  2.0538509643E+00  1.0133978647E+01
                       2.0538509643E+00  1.5277816860E-15  1.2820076026E+01
                       1.8554571765E-15  2.0538509643E+00  1.5569699706E+01
                       2.0538509643E+00  2.1755621724E-15  1.8255797086E+01
                       2.5032376629E-15  2.0538509643E+00  2.1005420765E+01
                       2.0538509643E+00  2.8233426588E-15  2.3691518145E+01
                       2.0538509643E+00  3.1952704222E-15  2.6812475967E+01
                       3.5515930260E-15  2.0538509643E+00  2.9802486197E+01
                       2.0538509643E+00  2.0538509643E+00  2.8307498317E+01
                       3.3734337780E-15  3.3734337780E-15  2.8307498317E+01
            xcart      3.8812158402E+00  1.0508935258E-15  8.8183639191E+00
                       1.6701104633E-15  3.8812158402E+00  1.4014399642E+01
                       3.8812158402E+00  2.2750212393E-15  1.9090388056E+01
                       2.8942381769E-15  3.8812158402E+00  2.4286423778E+01
                       3.8812158402E+00  3.4991489529E-15  2.9362412193E+01
                       4.1183658905E-15  3.8812158402E+00  3.4558447915E+01
                       3.8812158402E+00  4.7232766665E-15  3.9634436329E+01
                       5.3425013665E-15  3.8812158402E+00  4.4830537189E+01
                       1.0580427253E-15  3.8812158402E+00  8.8783550048E+00
                       3.8812158402E+00  1.6629535013E-15  1.3954343419E+01
                       2.2821782013E-15  3.8812158402E+00  1.9150444278E+01
                       3.8812158402E+00  2.8870889773E-15  2.4226432693E+01
                       3.5063059149E-15  3.8812158402E+00  2.9422468415E+01
                       3.8812158402E+00  4.1112166909E-15  3.4498456829E+01
                       4.7304336285E-15  3.8812158402E+00  3.9694492552E+01
                       3.8812158402E+00  5.3353444045E-15  4.4770480966E+01
                       3.8812158402E+00  6.0381860185E-15  5.0668236522E+01
                       6.7115381547E-15  3.8812158402E+00  5.6318536992E+01
                       3.8812158402E+00  3.8812158402E+00  5.3493419325E+01
                       6.3748659678E-15  6.3748659678E-15  5.3493419325E+01
             xred      5.0000000000E-01  2.5451086397E-32  1.3538200000E-01
                      -1.2553174550E-32  5.0000000000E-01  2.1515300000E-01
                       5.0000000000E-01 -2.5603026039E-32  2.9308100000E-01
                      -4.1574609594E-32  5.0000000000E-01  3.7285200000E-01
                       5.0000000000E-01 -5.4624461082E-32  4.5078000000E-01
                      -1.1466139942E-31  5.0000000000E-01  5.3055100000E-01
                       5.0000000000E-01  2.0200168819E-32  6.0847900000E-01
                      -7.4331858357E-32  5.0000000000E-01  6.8825100000E-01
                      -5.4468158982E-33  5.0000000000E-01  1.3630300000E-01
                       5.0000000000E-01 -1.8496667387E-32  2.1423100000E-01
                      -4.6930662386E-32  5.0000000000E-01  2.9400300000E-01
                       5.0000000000E-01 -1.0676707299E-32  3.7193100000E-01
                       2.7893967515E-32  5.0000000000E-01  4.5170200000E-01
                       5.0000000000E-01  9.6056642341E-33  5.2963000000E-01
                      -5.0431274105E-32  5.0000000000E-01  6.0940100000E-01
                       5.0000000000E-01 -1.1278493217E-31  6.8732900000E-01
                       5.0000000000E-01 -9.3691669479E-32  7.7787300000E-01
                      -1.0526112392E-31  5.0000000000E-01  8.6461800000E-01
                       5.0000000000E-01  5.0000000000E-01  8.2124600000E-01
                      -6.7420134542E-32 -6.7420134542E-32  8.2124600000E-01
            znucl       50.00000   34.00000   30.00000

 chkinp: Checking input parameters for consistency.

== DATASET  1 ==================================================================
-   mpi_nproc: 4, omp_nthreads: -1 (-1 if OMP is not activated)

--- !DatasetInfo
iteration_state: {dtset: 1, }
[...]
   17     -0.00000000000000    -0.00000000000000     0.01537411452184
   18     -0.00000000000000    -0.00000000000000    -0.01000372147296
   19     -0.00000000000000    -0.00000000000000     0.00137375747805
   20     -0.00000000000000    -0.00000000000000     0.00137375747805
 frms,max,avg= 5.3369367E-03 1.5594193E-02   0.000E+00  0.000E+00 -3.116E-05 h/b

 cartesian forces (eV/Angstrom) at end:
    1     -0.00000000000000    -0.00000000000000    -0.67874240761010
    2     -0.00000000000000    -0.00000000000000    -0.72429477076185
    3     -0.00000000000000    -0.00000000000000     0.20388781238834
    4     -0.00000000000000    -0.00000000000000    -0.17631023514093
    5     -0.00000000000000    -0.00000000000000     0.17212573321477
    6     -0.00000000000000    -0.00000000000000    -0.26039681861393
    7     -0.00000000000000    -0.00000000000000     0.77407935948902
    8     -0.00000000000000    -0.00000000000000     0.80188555961327
    9     -0.00000000000000    -0.00000000000000    -0.69737636416615
   10     -0.00000000000000    -0.00000000000000    -0.53286104915266
   11     -0.00000000000000    -0.00000000000000     0.12336378119485
   12     -0.00000000000000    -0.00000000000000    -0.01723610731944
   13     -0.00000000000000    -0.00000000000000     0.08585275104017
   14     -0.00000000000000    -0.00000000000000    -0.17090986531052
   15     -0.00000000000000    -0.00000000000000     0.62999502717845
   16     -0.00000000000000    -0.00000000000000     0.04949801553603
   17     -0.00000000000000    -0.00000000000000     0.79056868846638
   18     -0.00000000000000    -0.00000000000000    -0.51441199773979
   19     -0.00000000000000    -0.00000000000000     0.07064144384706
   20     -0.00000000000000    -0.00000000000000     0.07064144384706
 frms,max,avg= 2.7443630E-01 8.0188556E-01   0.000E+00  0.000E+00 -1.603E-03 e/A
 length scales=  7.762431680422  7.762431680422  7.762431680422 bohr
              =  4.107701928516  4.107701928516  4.107701928516 angstroms
 prteigrs : about to open file Cs2TiI6o_EIG
 Fermi (or HOMO) energy (hartree) =   0.15492   Average Vxc (hartree)=  -0.32615
 Eigenvalues (hartree) for nkpt=   6  k points:
 kpt#   1, nband=159, wtk=  0.11111, kpt=  0.0833  0.0833  0.5000 (reduced coord)
  -4.70488   -4.70487   -2.94192   -2.94179   -2.93995   -2.93978   -2.93956   -2.93949
  -1.66447   -1.66423   -1.66322   -1.66246   -1.66230   -1.66183   -1.66115   -1.66079
  -1.66022   -1.65949   -1.65900   -1.65868   -1.65832   -1.65828   -1.65819   -1.65784
  -1.65695   -1.65687   -1.65675   -1.65658   -1.65652   -1.65610   -1.65508   -1.65482
  -1.65481   -1.65427   -1.65397   -1.65311   -1.65303   -1.65268   -1.65248   -1.65171
  -1.65109   -1.64906   -1.64835   -1.64813   -1.64789   -1.64627   -1.64455   -1.64334
  -1.63711   -1.63630   -1.63584   -1.63409   -1.63366   -1.63327   -1.63286   -1.63215
  -1.62992   -1.62970   -0.65851   -0.65769   -0.65687   -0.65678   -0.65614   -0.65599
  -0.65588   -0.65574   -0.65573   -0.65498   -0.65480   -0.65461   -0.65459   -0.65443
  -0.65423   -0.65418   -0.65343   -0.65330   -0.65279   -0.65271   -0.65062   -0.64903
  -0.64896   -0.64877   -0.64860   -0.64857   -0.64839   -0.64821   -0.64813   -0.64808
  -0.64803   -0.64685   -0.64671   -0.64668   -0.64649   -0.64644   -0.64566   -0.64561
  -0.64522   -0.64517   -0.41176   -0.40487   -0.39486   -0.38328   -0.37783   -0.36793
  -0.35553   -0.35146   -0.34067   -0.33912   -0.16784   -0.16545   -0.16502   -0.16497
  -0.16407   -0.15237   -0.15190   -0.15100   -0.14671   -0.14454   -0.13417   -0.13320
  -0.12004   -0.11629   -0.09893   -0.09232   -0.07169   -0.06518   -0.05283   -0.04403
  -0.03370   -0.02919   -0.02077   -0.00872   -0.00354    0.00475    0.00910    0.01178
   0.01484    0.01816    0.02111    0.02688    0.03320    0.03595    0.03852    0.04334
   0.04751    0.05162    0.05262    0.06430    0.07916    0.08202    0.08538    0.08662
   0.08976    0.09777    0.12792    0.13272    0.18296    0.19809    0.21188
 prteigrs : prtvol=0 or 1, do not print more k-points.

--- !EnergyTerms
iteration_state     : {dtset: 1, }
comment             : Components of total free energy in Hartree
kinetic             :  1.30327689376956E+03
hartree             :  2.60164711333564E+03
xc                  : -4.59125070730173E+02
Ewald energy        :  7.27738030419680E+02
psp_core            :  4.84825430959148E+01
local_psp           : -5.70413165675546E+03
non_local_psp       : -7.66372353175532E+02
VdWaals_dft_d       : -2.58259049307805E-01
total_energy        : -2.24874275908969E+03
...

--- !EnergyTermsDC
iteration_state     : {dtset: 1, }
comment             : '"Double-counting" decomposition of free energy'
band_energy         : -2.81822996572849E+02
Ewald energy        :  7.27738030419680E+02
psp_core            :  4.84825430959148E+01
xc_dc               : -2.74288210837638E+03
VdWaals_dft_d       : -2.58259049307805E-01
total_energy_dc     : -2.24874279048294E+03
...

 Cartesian components of stress tensor (hartree/bohr^3)
  sigma(1 1)=  1.60734581E-02  sigma(3 2)=  0.00000000E+00
  sigma(2 2)=  1.60734581E-02  sigma(3 1)=  0.00000000E+00
  sigma(3 3)=  1.57963198E-02  sigma(2 1)=  0.00000000E+00

-Cartesian components of stress tensor (GPa)         [Pressure= -4.7018E+02 GPa]
- sigma(1 1)=  4.72897384E+02  sigma(3 2)=  0.00000000E+00
- sigma(2 2)=  4.72897384E+02  sigma(3 1)=  0.00000000E+00
- sigma(3 3)=  4.64743694E+02  sigma(2 1)=  0.00000000E+00

== END DATASET(S) ==============================================================

 -outvars: echo values of variables after computation  --------
            acell      7.7624316804E+00  7.7624316804E+00  7.7624316804E+00 Bohr
              amu      1.18710000E+02  7.89600000E+01  6.53900000E+01
           diemac      1.20000000E+01
             ecut      2.25000000E+01 Hartree
           etotal     -2.2487427905E+03
            fcart     -0.0000000000E+00 -0.0000000000E+00 -1.3199439413E-02
                      -0.0000000000E+00 -0.0000000000E+00 -1.4085291912E-02
                      -0.0000000000E+00 -0.0000000000E+00  3.9649870062E-03
                      -0.0000000000E+00 -0.0000000000E+00 -3.4286884694E-03
                      -0.0000000000E+00 -0.0000000000E+00  3.3473128562E-03
                      -0.0000000000E+00 -0.0000000000E+00 -5.0639123063E-03
                      -0.0000000000E+00 -0.0000000000E+00  1.5053448101E-02
                      -0.0000000000E+00 -0.0000000000E+00  1.5594192645E-02
                      -0.0000000000E+00 -0.0000000000E+00 -1.3561812204E-02
                      -0.0000000000E+00 -0.0000000000E+00 -1.0362498431E-02
                      -0.0000000000E+00 -0.0000000000E+00  2.3990437866E-03
                      -0.0000000000E+00 -0.0000000000E+00 -3.3518894905E-04
                      -0.0000000000E+00 -0.0000000000E+00  1.6695703305E-03
                      -0.0000000000E+00 -0.0000000000E+00 -3.3236679880E-03
                      -0.0000000000E+00 -0.0000000000E+00  1.2251453716E-02
                      -0.0000000000E+00 -0.0000000000E+00  9.6258322718E-04
                      -0.0000000000E+00 -0.0000000000E+00  1.5374114522E-02
                      -0.0000000000E+00 -0.0000000000E+00 -1.0003721473E-02
                      -0.0000000000E+00 -0.0000000000E+00  1.3737574780E-03
                      -0.0000000000E+00 -0.0000000000E+00  1.3737574780E-03
-          fftalg         112
             iscf          17
              ixc          11
              kpt      8.33333333E-02  8.33333333E-02  5.00000000E-01
                       2.50000000E-01  8.33333333E-02  5.00000000E-01
                       4.16666667E-01  8.33333333E-02  5.00000000E-01
                       2.50000000E-01  2.50000000E-01  5.00000000E-01
                       4.16666667E-01  2.50000000E-01  5.00000000E-01
                       4.16666667E-01  4.16666667E-01  5.00000000E-01
         kptrlatt        6    0    0      0    6    0      0    0    1
          kptrlen      4.65745901E+01
P           mkmem           2
            natom          20
            nband         159
            ngfft          36      36     288
             nkpt           6
            nstep         150
             nsym           8
           ntypat           3
              occ      2.000000  2.000000  2.000000  2.000000  2.000000  2.000000
                       2.000000  2.000000  2.000000  2.000000  2.000000  2.000000
                       2.000000  2.000000  2.000000  2.000000  2.000000  2.000000
                       2.000000  2.000000  2.000000  2.000000  2.000000  2.000000
                       2.000000  2.000000  2.000000  2.000000  2.000000  2.000000
                       2.000000  2.000000  2.000000  2.000000  2.000000  2.000000
                       2.000000  2.000000  2.000000  2.000000  2.000000  2.000000
                       2.000000  2.000000  2.000000  2.000000  2.000000  2.000000
                       2.000000  2.000000  2.000000  2.000000  2.000000  2.000000
                       2.000000  2.000000  2.000000  2.000000  2.000000  2.000000
                       2.000000  2.000000  2.000000  2.000000  2.000000  2.000000
                       2.000000  2.000000  2.000000  2.000000  2.000000  2.000000
                       2.000000  2.000000  2.000000  2.000000  2.000000  2.000000
                       2.000000  2.000000  2.000000  2.000000  2.000000  2.000000
                       2.000000  2.000000  2.000000  2.000000  2.000000  2.000000
                       2.000000  2.000000  2.000000  2.000000  2.000000  2.000000
                       2.000000  2.000000  2.000000  2.000000  2.000000  2.000000
                       2.000000  2.000000  2.000000  2.000000  2.000000  2.000000
                       2.000000  2.000000  2.000000  2.000000  2.000000  2.000000
                       2.000000  2.000000  2.000000  2.000000  2.000000  2.000000
                       2.000000  2.000000  2.000000  2.000000  2.000000  2.000000
                       2.000000  2.000000  2.000000  2.000000  2.000000  2.000000
                       2.000000  2.000000  2.000000  2.000000  2.000000  2.000000
                       2.000000  2.000000  2.000000  2.000000  2.000000  2.000000
                       2.000000  2.000000  2.000000  2.000000  2.000000  2.000000
                       2.000000  2.000000  2.000000  2.000000  2.000000  2.000000
                       0.000000  0.000000  0.000000
           prtcif           1
            prtwf           0
            rprim      1.0000000000E+00  0.0000000000E+00  0.0000000000E+00
                       0.0000000000E+00  1.0000000000E+00  0.0000000000E+00
                       1.0000000000E-15  1.0000000000E-15  8.3913010243E+00
           shiftk      5.00000000E-01  5.00000000E-01  5.00000000E-01
          spgroup          99
           strten      1.6073458100E-02  1.6073458100E-02  1.5796319758E-02
                       0.0000000000E+00  0.0000000000E+00  0.0000000000E+00
           symrel      1  0  0   0  1  0   0  0  1       1  0  0   0 -1  0   0  0  1
                      -1  0  0   0 -1  0   0  0  1      -1  0  0   0  1  0   0  0  1
                       0  1  0   1  0  0   0  0  1       0  1  0  -1  0  0   0  0  1
                       0 -1  0  -1  0  0   0  0  1       0 -1  0   1  0  0   0  0  1
            tnons      0.0000000  0.0000000  0.0000000     0.0000000 -0.0000000  0.0000000
                      -0.0000000 -0.0000000  0.0000000    -0.0000000  0.0000000  0.0000000
                       0.5000000  0.5000000  0.0000000     0.5000000  0.5000000  0.0000000
                       0.5000000  0.5000000  0.0000000     0.5000000  0.5000000  0.0000000
           toldfe      1.00000000E-07 Hartree
            typat      1  1  1  1  1  1  1  1  2  2  2  2  2  2  2  2  2  2  3  3
           vdw_xc           5
              wtk        0.11111    0.22222    0.22222    0.11111    0.22222    0.11111
           xangst      2.0538509643E+00  5.5610890249E-16  4.6664772030E+00
                       8.8378439303E-16  2.0538509643E+00  7.4161008824E+00
                       2.0538509643E+00  1.2038893889E-15  1.0102198262E+01
                       1.5315648795E-15  2.0538509643E+00  1.2851821942E+01
                       2.0538509643E+00  1.8516698753E-15  1.5537919322E+01
                       2.1793453659E-15  2.0538509643E+00  1.8287543001E+01
                       2.0538509643E+00  2.4994503618E-15  2.0973640381E+01
                       2.8271299600E-15  2.0538509643E+00  2.3723298529E+01
                       5.5989209596E-16  2.0538509643E+00  4.6982231183E+00
                       2.0538509643E+00  8.7999709185E-16  7.3843204982E+00
                       1.2076766901E-15  2.0538509643E+00  1.0133978647E+01
                       2.0538509643E+00  1.5277816860E-15  1.2820076026E+01
                       1.8554571765E-15  2.0538509643E+00  1.5569699706E+01
                       2.0538509643E+00  2.1755621724E-15  1.8255797086E+01
                       2.5032376629E-15  2.0538509643E+00  2.1005420765E+01
                       2.0538509643E+00  2.8233426588E-15  2.3691518145E+01
                       2.0538509643E+00  3.1952704222E-15  2.6812475967E+01
                       3.5515930260E-15  2.0538509643E+00  2.9802486197E+01
                       2.0538509643E+00  2.0538509643E+00  2.8307498317E+01
                       3.3734337780E-15  3.3734337780E-15  2.8307498317E+01
            xcart      3.8812158402E+00  1.0508935258E-15  8.8183639191E+00
                       1.6701104633E-15  3.8812158402E+00  1.4014399642E+01
                       3.8812158402E+00  2.2750212393E-15  1.9090388056E+01
                       2.8942381769E-15  3.8812158402E+00  2.4286423778E+01
                       3.8812158402E+00  3.4991489529E-15  2.9362412193E+01
                       4.1183658905E-15  3.8812158402E+00  3.4558447915E+01
                       3.8812158402E+00  4.7232766665E-15  3.9634436329E+01
                       5.3425013665E-15  3.8812158402E+00  4.4830537189E+01
                       1.0580427253E-15  3.8812158402E+00  8.8783550048E+00
                       3.8812158402E+00  1.6629535013E-15  1.3954343419E+01
                       2.2821782013E-15  3.8812158402E+00  1.9150444278E+01
                       3.8812158402E+00  2.8870889773E-15  2.4226432693E+01
                       3.5063059149E-15  3.8812158402E+00  2.9422468415E+01
                       3.8812158402E+00  4.1112166909E-15  3.4498456829E+01
                       4.7304336285E-15  3.8812158402E+00  3.9694492552E+01
                       3.8812158402E+00  5.3353444045E-15  4.4770480966E+01
                       3.8812158402E+00  6.0381860185E-15  5.0668236522E+01
                       6.7115381547E-15  3.8812158402E+00  5.6318536992E+01
                       3.8812158402E+00  3.8812158402E+00  5.3493419325E+01
                       6.3748659678E-15  6.3748659678E-15  5.3493419325E+01
             xred      5.0000000000E-01  2.5451086397E-32  1.3538200000E-01
                      -1.2553174550E-32  5.0000000000E-01  2.1515300000E-01
                       5.0000000000E-01 -2.5603026039E-32  2.9308100000E-01
                      -4.1574609594E-32  5.0000000000E-01  3.7285200000E-01
                       5.0000000000E-01 -5.4624461082E-32  4.5078000000E-01
                      -1.1466139942E-31  5.0000000000E-01  5.3055100000E-01
                       5.0000000000E-01  2.0200168819E-32  6.0847900000E-01
                      -7.4331858357E-32  5.0000000000E-01  6.8825100000E-01
                      -5.4468158982E-33  5.0000000000E-01  1.3630300000E-01
                       5.0000000000E-01 -1.8496667387E-32  2.1423100000E-01
                      -4.6930662386E-32  5.0000000000E-01  2.9400300000E-01
                       5.0000000000E-01 -1.0676707299E-32  3.7193100000E-01
                       2.7893967515E-32  5.0000000000E-01  4.5170200000E-01
                       5.0000000000E-01  9.6056642341E-33  5.2963000000E-01
                      -5.0431274105E-32  5.0000000000E-01  6.0940100000E-01
                       5.0000000000E-01 -1.1278493217E-31  6.8732900000E-01
                       5.0000000000E-01 -9.3691669479E-32  7.7787300000E-01
                      -1.0526112392E-31  5.0000000000E-01  8.6461800000E-01
                       5.0000000000E-01  5.0000000000E-01  8.2124600000E-01
                      -6.7420134542E-32 -6.7420134542E-32  8.2124600000E-01
            znucl       50.00000   34.00000   30.00000

- Timing analysis has been suppressed with timopt=0

 Suggested references for the acknowledgment of ABINIT usage.

 Calculation completed.
.Delivered   0 WARNINGs and   0 COMMENTs to log file.