.Version 9.2.2 of ABINIT

 ABINIT is a project of the Universite Catholique de Louvain,
 Corning Inc. and other collaborators, see ~abinit/doc/developers/contributors.txt .
 acknowledgments of the ABINIT effort.

.Starting date : Sat 24 Feb 2024.
- ( at 13h10 )

- The starting date is more than 3 years after the initial release
- of this version of ABINIT, namely Nov 2020.
- This version of ABINIT is not supported anymore.
- Action: please, switch to a more recent version of ABINIT.

 === Build Information ===
  Version       : 9.2.2
  Build target  : x86_64_linux_gnu9.3
  Build date    : 20210501

 === Optimizations ===
  Debug level        : basic
  Optimization level : standard
  Architecture       : unknown_unknown

 === Multicore ===
  Parallel build : yes
  Parallel I/O   : yes
  openMP support :
  GPU support    :

 === Connectors / Fallbacks ===
  LINALG flavor  : netlib
  FFT flavor     : goedecker
  HDF5           : yes
  NetCDF         : yes
  NetCDF Fortran : yes
  Wannier90      : no

 === Experimental features ===
  Exports             :
  GW double-precision :

 Default optimizations:
   -O2 -mtune=native -march=native

 Optimizations for 43_ptgroups:
   -O0

 CPP options activated during the build:

                    CC_GNU                    FC_GNU HAVE_FC_ALLOCATABLE_DT...

             HAVE_FC_ASYNC         HAVE_FC_BACKTRACE  HAVE_FC_COMMAND_ARGUMENT

      HAVE_FC_COMMAND_LINE        HAVE_FC_CONTIGUOUS           HAVE_FC_CPUTIME

              HAVE_FC_EXIT             HAVE_FC_FLUSH             HAVE_FC_GAMMA

            HAVE_FC_GETENV   HAVE_FC_IEEE_ARITHMETIC   HAVE_FC_IEEE_EXCEPTIONS

          HAVE_FC_INT_QUAD             HAVE_FC_IOMSG     HAVE_FC_ISO_C_BINDING

  HAVE_FC_ISO_FORTRAN_2008        HAVE_FC_LONG_LINES        HAVE_FC_MOVE_ALLOC

  HAVE_FC_ON_THE_FLY_SHAPE           HAVE_FC_PRIVATE         HAVE_FC_PROTECTED

           HAVE_FC_SHIFTLR         HAVE_FC_STREAM_IO            HAVE_FC_SYSTEM

          HAVE_FORTRAN2003                 HAVE_HDF5        HAVE_LIBPAW_ABINIT

                 HAVE_MPI2       HAVE_MPI_IALLGATHER       HAVE_MPI_IALLREDUCE

        HAVE_MPI_IALLTOALL       HAVE_MPI_IALLTOALLV           HAVE_MPI_IBCAST

         HAVE_MPI_IGATHERV        HAVE_MPI_INTEGER16               HAVE_MPI_IO

 HAVE_MPI_TYPE_CREATE_S...               HAVE_NETCDF       HAVE_NETCDF_FORTRAN

             HAVE_OS_LINUX         HAVE_TIMER_ABINIT

- input  file    -> Cs2TiI6.in
- output file    -> Cs2TiI6.out
- root for input  files -> Cs2TiI6i
- root for output files -> Cs2TiI6o

-instrng: 38 lines of input have been read from file Cs2TiI6.in

 Please give name of formatted atomic psp file (and finish with a newline character)
 For atom type 1, psp file is ../../../Psps_for_tests/ATOMICDATA_NC/Sn.psp8

 Please give name of formatted atomic psp file (and finish with a newline character)
 For atom type 2, psp file is ../../../Psps_for_tests/ATOMICDATA_NC/Se.psp8
  read the values zionpsp= 14.0 , pspcod=   8 , lmax=   2
  read the values zionpsp= 16.0 , pspcod=   8 , lmax=   2

 inpspheads: deduce mpsang = 3, n1xccc = 2501.

 invars1m : enter jdtset= 0

 symlatt: the Bravais lattice is tP (primitive tetragonal)
  xred   is defined in input file
 ingeo: takes atomic coordinates from input array xred

--- !WARNING
src_file: m_ingeo.F90
src_line: 887
message: |
    The tolerance on symmetries =   1.000E-05 is bigger than 1.0e-8.
    In order to avoid spurious effects, the atomic coordinates have been
    symmetrized before storing them in the dataset internal variable.
    So, do not be surprised by the fact that your input variables (xcart, xred, ...)
    do not correspond to the ones echoed by ABINIT, the latter being used to do the calculations.
    In order to avoid this symmetrization (e.g. for specific debugging/development), decrease tolsym to 1.0e-8 or lower.
...

 symlatt: the Bravais lattice is tP (primitive tetragonal)

 symlatt: the Bravais lattice is tP (primitive tetragonal)
 symspgr: spgroup= 129  P4/n m m   (=D4h^7)
 symspgr: optical characteristics = uniaxial
 Optical axis (in reduced coordinates, real space ) :   0   0   1
 invars2: take the default value of fband=  1.25000000E-01
 For input ecut=  2.250000E+01 best grid ngfft=      36      36     100
       max ecut=  2.366431E+01

 ==== FFT mesh ====
  FFT mesh divisions ........................    36   36  100
  Augmented FFT divisions ...................    37   37  100
  FFT algorithm .............................   112
  FFT cache size ............................    16
 getmpw: optimal value of mpw= 7039

 Symmetries : space group P4/n m m (#129); Bravais tP (primitive tetrag.)

 getdim_nloc : deduce lmnmax  =  18, lnmax  =   6,
                      lmnmaxso=  18, lnmaxso=   6.
     intxc =       0    ionmov =       0      iscf =      17    lmnmax =       6
     lnmax =       6     mgfft =     100  mpssoang =       3    mqgrid =    4876
     natom =       4  nloc_mem =       1    nspden =       1   nspinor =       1
    nsppol =       1      nsym =      16    n1xccc =    2501    ntypat =       2
    occopt =       1   xclevel =       2
-    mband =          31        mffmem =           1         mkmem =           7
       mpw =        7039          nfft =      129600          nkpt =          42
  Rough estimation (10% accuracy) of disk space for files :

 The job will continue.
------------- Echo of variables that govern the present computation ------------
-
- outvars: echo of selected default values
-   iomode0 =  0 , fftalg0 =112 , wfoptalg0 =  0
-
- outvars: echo of global parameters not present in the input file
-  max_nthreads =    0
-
 -outvars: echo values of preprocessed input variables --------

 These variables are accessible in NetCDF format (Cs2TiI6o_OUT.nc)

            acell      7.7624316804E+00  7.7624316804E+00  7.7624316804E+00 Bohr
              amu      1.18710000E+02  7.89600000E+01
           diemac      1.20000000E+01
             ecut      2.25000000E+01 Hartree
-          fftalg         112
             iscf          17
              ixc          11
              kpt      4.16666667E-02  4.16666667E-02  1.25000000E-01
                       1.25000000E-01  4.16666667E-02  1.25000000E-01
                       2.08333333E-01  4.16666667E-02  1.25000000E-01
                       2.91666667E-01  4.16666667E-02  1.25000000E-01
                       3.75000000E-01  4.16666667E-02  1.25000000E-01
                       4.58333333E-01  4.16666667E-02  1.25000000E-01
                       1.25000000E-01  1.25000000E-01  1.25000000E-01
                       2.08333333E-01  1.25000000E-01  1.25000000E-01
                       2.91666667E-01  1.25000000E-01  1.25000000E-01
                       3.75000000E-01  1.25000000E-01  1.25000000E-01
                       4.58333333E-01  1.25000000E-01  1.25000000E-01
                       2.08333333E-01  2.08333333E-01  1.25000000E-01
                       2.91666667E-01  2.08333333E-01  1.25000000E-01
                       3.75000000E-01  2.08333333E-01  1.25000000E-01
                       4.58333333E-01  2.08333333E-01  1.25000000E-01
                       2.91666667E-01  2.91666667E-01  1.25000000E-01
                       3.75000000E-01  2.91666667E-01  1.25000000E-01
                       4.58333333E-01  2.91666667E-01  1.25000000E-01
                       3.75000000E-01  3.75000000E-01  1.25000000E-01
                       4.58333333E-01  3.75000000E-01  1.25000000E-01
                       4.58333333E-01  4.58333333E-01  1.25000000E-01
                       4.16666667E-02  4.16666667E-02  3.75000000E-01
                       1.25000000E-01  4.16666667E-02  3.75000000E-01
                       2.08333333E-01  4.16666667E-02  3.75000000E-01
                       2.91666667E-01  4.16666667E-02  3.75000000E-01
                       3.75000000E-01  4.16666667E-02  3.75000000E-01
                       4.58333333E-01  4.16666667E-02  3.75000000E-01
                       1.25000000E-01  1.25000000E-01  3.75000000E-01
                       2.08333333E-01  1.25000000E-01  3.75000000E-01
                       2.91666667E-01  1.25000000E-01  3.75000000E-01
                       3.75000000E-01  1.25000000E-01  3.75000000E-01
                       4.58333333E-01  1.25000000E-01  3.75000000E-01
                       2.08333333E-01  2.08333333E-01  3.75000000E-01
                       2.91666667E-01  2.08333333E-01  3.75000000E-01
                       3.75000000E-01  2.08333333E-01  3.75000000E-01
                       4.58333333E-01  2.08333333E-01  3.75000000E-01
                       2.91666667E-01  2.91666667E-01  3.75000000E-01
                       3.75000000E-01  2.91666667E-01  3.75000000E-01
                       4.58333333E-01  2.91666667E-01  3.75000000E-01
                       3.75000000E-01  3.75000000E-01  3.75000000E-01
                       4.58333333E-01  3.75000000E-01  3.75000000E-01
                       4.58333333E-01  4.58333333E-01  3.75000000E-01
         kptrlatt       12    0    0      0   12    0      0    0    4
          kptrlen      9.31491802E+01
P           mkmem           7
            natom           4
            nband          31
            ngfft          36      36     100
             nkpt          42
            nstep         150
             nsym          16
           ntypat           2
              occ      2.000000  2.000000  2.000000  2.000000  2.000000  2.000000
                       2.000000  2.000000  2.000000  2.000000  2.000000  2.000000
                       2.000000  2.000000  2.000000  2.000000  2.000000  2.000000
                       2.000000  2.000000  2.000000  2.000000  2.000000  2.000000
                       2.000000  2.000000  2.000000  2.000000  2.000000  2.000000
                       0.000000
           prtcif           1
            rprim      1.0000000000E+00  0.0000000000E+00  0.0000000000E+00
                       0.0000000000E+00  1.0000000000E+00  0.0000000000E+00
                       0.0000000000E+00  0.0000000000E+00  2.9414414678E+00
           shiftk      5.00000000E-01  5.00000000E-01  5.00000000E-01
          spgroup         129
           symrel      1  0  0   0  1  0   0  0  1      -1  0  0   0 -1  0   0  0 -1
                      -1  0  0   0  1  0   0  0 -1       1  0  0   0 -1  0   0  0  1
                      -1  0  0   0 -1  0   0  0  1       1  0  0   0  1  0   0  0 -1
                       1  0  0   0 -1  0   0  0 -1      -1  0  0   0  1  0   0  0  1
                       0  1  0   1  0  0   0  0  1       0 -1  0  -1  0  0   0  0 -1
                       0 -1  0   1  0  0   0  0 -1       0  1  0  -1  0  0   0  0  1
                       0 -1  0  -1  0  0   0  0  1       0  1  0   1  0  0   0  0 -1
                       0  1  0  -1  0  0   0  0 -1       0 -1  0   1  0  0   0  0  1
            tnons      0.0000000  0.0000000  0.0000000     0.5000000  0.5000000  0.0000000
                       0.5000000  0.5000000  0.0000000     0.0000000  0.0000000  0.0000000
                       0.0000000  0.0000000  0.0000000     0.5000000  0.5000000  0.0000000
[...]
  -1.76145   -1.76012   -1.75950   -1.75856   -1.75722   -1.75581   -1.75544   -1.75310
  -1.75240   -1.75151   -0.76891   -0.76812   -0.76794   -0.76790   -0.76774   -0.76762
  -0.76734   -0.76722   -0.76719   -0.76707   -0.47644   -0.45686   -0.26495   -0.24703
  -0.10210   -0.07849   -0.05986   -0.04623   -0.00506    0.02413    0.06482
 kpt#  27, nband= 31, wtk=  0.02778, kpt=  0.4583  0.0417  0.3750 (reduced coord)
  -1.76208   -1.76075   -1.76044   -1.75978   -1.75701   -1.75668   -1.75532   -1.75476
  -1.75308   -1.75218   -0.76874   -0.76824   -0.76818   -0.76798   -0.76790   -0.76769
  -0.76762   -0.76747   -0.76722   -0.76704   -0.46810   -0.46120   -0.26696   -0.26061
  -0.08817   -0.07536   -0.05826   -0.04838    0.00957    0.02438    0.06177
 kpt#  28, nband= 31, wtk=  0.01389, kpt=  0.1250  0.1250  0.3750 (reduced coord)
  -1.76116   -1.76111   -1.76024   -1.75879   -1.75847   -1.75742   -1.75619   -1.75514
  -1.75330   -1.75223   -0.76962   -0.76812   -0.76811   -0.76796   -0.76796   -0.76787
  -0.76755   -0.76752   -0.76714   -0.76702   -0.49441   -0.45579   -0.22895   -0.19583
  -0.12315   -0.12291   -0.07701   -0.06770   -0.01624   -0.00671    0.06819
 kpt#  29, nband= 31, wtk=  0.02778, kpt=  0.2083  0.1250  0.3750 (reduced coord)
  -1.76225   -1.76088   -1.76014   -1.75744   -1.75721   -1.75631   -1.75497   -1.75409
  -1.75211   -1.75194   -0.76944   -0.76829   -0.76805   -0.76785   -0.76765   -0.76760
  -0.76756   -0.76727   -0.76704   -0.76694   -0.48932   -0.45468   -0.24025   -0.20991
  -0.12662   -0.11886   -0.07936   -0.05262   -0.00259    0.00220    0.07185
 kpt#  30, nband= 31, wtk=  0.02778, kpt=  0.2917  0.1250  0.3750 (reduced coord)
  -1.76110   -1.76078   -1.75888   -1.75703   -1.75602   -1.75479   -1.75449   -1.75306
  -1.75245   -1.75200   -0.76915   -0.76812   -0.76789   -0.76784   -0.76763   -0.76741
  -0.76729   -0.76712   -0.76705   -0.76699   -0.48228   -0.45420   -0.25249   -0.22751
  -0.12093   -0.11118   -0.07467   -0.04912    0.00481    0.00515    0.08170
 kpt#  31, nband= 31, wtk=  0.02778, kpt=  0.3750  0.1250  0.3750 (reduced coord)
  -1.76217   -1.76022   -1.75933   -1.75823   -1.75727   -1.75673   -1.75594   -1.75431
  -1.75331   -1.75201   -0.76888   -0.76842   -0.76809   -0.76800   -0.76786   -0.76760
  -0.76739   -0.76736   -0.76720   -0.76703   -0.47415   -0.45554   -0.26100   -0.24429
  -0.10876   -0.10027   -0.06949   -0.05619   -0.00546    0.01083    0.07193
 kpt#  32, nband= 31, wtk=  0.02778, kpt=  0.4583  0.1250  0.3750 (reduced coord)
  -1.76128   -1.76079   -1.75951   -1.75912   -1.75764   -1.75639   -1.75590   -1.75480
  -1.75405   -1.75311   -0.76868   -0.76858   -0.76818   -0.76806   -0.76763   -0.76762
  -0.76752   -0.76744   -0.76735   -0.76718   -0.46610   -0.45955   -0.26272   -0.25680
  -0.09374   -0.08896   -0.07220   -0.06795   -0.00679    0.00395    0.07335
 kpt#  33, nband= 31, wtk=  0.01389, kpt=  0.2083  0.2083  0.3750 (reduced coord)
  -1.76122   -1.76071   -1.76032   -1.75671   -1.75584   -1.75562   -1.75543   -1.75483
  -1.75266   -1.75193   -0.76929   -0.76834   -0.76779   -0.76776   -0.76767   -0.76752
  -0.76741   -0.76734   -0.76730   -0.76690   -0.48436   -0.45336   -0.24301   -0.21645
  -0.14210   -0.11322   -0.09328   -0.04513   -0.00022    0.01093    0.07525
 kpt#  34, nband= 31, wtk=  0.02778, kpt=  0.2917  0.2083  0.3750 (reduced coord)
  -1.76255   -1.76167   -1.76048   -1.75791   -1.75735   -1.75684   -1.75571   -1.75518
  -1.75418   -1.75278   -0.76921   -0.76867   -0.76826   -0.76808   -0.76773   -0.76769
  -0.76756   -0.76750   -0.76711   -0.76696   -0.47760   -0.45253   -0.24832   -0.22715
  -0.14571   -0.10636   -0.09651   -0.04832   -0.02223    0.01400    0.07198
 kpt#  35, nband= 31, wtk=  0.02778, kpt=  0.3750  0.2083  0.3750 (reduced coord)
  -1.76192   -1.76156   -1.75981   -1.75896   -1.75810   -1.75752   -1.75724   -1.75506
  -1.75438   -1.75320   -0.76912   -0.76895   -0.76833   -0.76814   -0.76779   -0.76761
  -0.76752   -0.76746   -0.76720   -0.76714   -0.46990   -0.45333   -0.25338   -0.23940
  -0.13838   -0.09840   -0.09518   -0.05789   -0.04115   -0.00330    0.07995
 kpt#  36, nband= 31, wtk=  0.02778, kpt=  0.4583  0.2083  0.3750 (reduced coord)
  -1.76166   -1.76053   -1.75944   -1.75826   -1.75757   -1.75664   -1.75657   -1.75562
  -1.75290   -1.75263   -0.76902   -0.76881   -0.76812   -0.76794   -0.76774   -0.76760
  -0.76751   -0.76733   -0.76714   -0.76712   -0.46246   -0.45664   -0.25434   -0.24940
  -0.12366   -0.10646   -0.08507   -0.07107   -0.04094   -0.02502    0.09590
 kpt#  37, nband= 31, wtk=  0.01389, kpt=  0.2917  0.2917  0.3750 (reduced coord)
  -1.76247   -1.76131   -1.75985   -1.75833   -1.75815   -1.75733   -1.75555   -1.75503
  -1.75432   -1.75384   -0.76918   -0.76896   -0.76810   -0.76809   -0.76789   -0.76770
  -0.76763   -0.76750   -0.76722   -0.76686   -0.47131   -0.45110   -0.24456   -0.22902
  -0.16050   -0.10976   -0.10169   -0.05408   -0.05137   -0.00456    0.08186
 kpt#  38, nband= 31, wtk=  0.02778, kpt=  0.3750  0.2917  0.3750 (reduced coord)
  -1.76172   -1.75947   -1.75902   -1.75821   -1.75729   -1.75660   -1.75588   -1.75491
  -1.75415   -1.75295   -0.76902   -0.76888   -0.76812   -0.76794   -0.76787   -0.76756
  -0.76747   -0.76733   -0.76708   -0.76695   -0.46434   -0.45104   -0.24301   -0.23366
  -0.16174   -0.11486   -0.10451   -0.06613   -0.06491   -0.02760    0.09680
 kpt#  39, nband= 31, wtk=  0.02778, kpt=  0.4583  0.2917  0.3750 (reduced coord)
  -1.76108   -1.76063   -1.75936   -1.75894   -1.75808   -1.75688   -1.75625   -1.75527
  -1.75312   -1.75236   -0.76920   -0.76905   -0.76815   -0.76810   -0.76773   -0.76760
  -0.76738   -0.76721   -0.76714   -0.76698   -0.45791   -0.45324   -0.24207   -0.23893
  -0.15055   -0.13177   -0.09828   -0.08279   -0.05892   -0.04562    0.11232
 kpt#  40, nband= 31, wtk=  0.01389, kpt=  0.3750  0.3750  0.3750 (reduced coord)
  -1.76212   -1.76200   -1.75999   -1.75876   -1.75753   -1.75736   -1.75721   -1.75529
  -1.75319   -1.75315   -0.76949   -0.76903   -0.76810   -0.76804   -0.76794   -0.76773
  -0.76746   -0.76741   -0.76716   -0.76700   -0.45847   -0.44974   -0.23253   -0.22901
  -0.17441   -0.12877   -0.12255   -0.08427   -0.06645   -0.04245    0.11217
 kpt#  41, nband= 31, wtk=  0.02778, kpt=  0.4583  0.3750  0.3750 (reduced coord)
  -1.76240   -1.76138   -1.76061   -1.75992   -1.75784   -1.75773   -1.75727   -1.75577
  -1.75429   -1.75353   -0.76948   -0.76922   -0.76828   -0.76807   -0.76801   -0.76776
  -0.76764   -0.76749   -0.76709   -0.76705   -0.45348   -0.45042   -0.22688   -0.22661
  -0.17121   -0.15343   -0.11924   -0.10475   -0.05974   -0.05158    0.12603
 kpt#  42, nband= 31, wtk=  0.01389, kpt=  0.4583  0.4583  0.3750 (reduced coord)
  -1.76235   -1.76109   -1.76013   -1.75898   -1.75818   -1.75724   -1.75644   -1.75607
  -1.75329   -1.75286   -0.76949   -0.76941   -0.76819   -0.76802   -0.76773   -0.76763
  -0.76758   -0.76751   -0.76702   -0.76691   -0.45030   -0.44922   -0.21521   -0.21344
  -0.18179   -0.17257   -0.12943   -0.12316   -0.05671   -0.05391    0.13705
 Total charge density [el/Bohr^3]
      Maximum=    2.2117E+00  at reduced coord.    0.5278    0.9722    0.6400
 Next maximum=    2.2117E+00  at reduced coord.    0.4722    0.9722    0.6400
      Minimum=    6.0606E-06  at reduced coord.    0.0000    0.0000    0.0000
 Next minimum=    6.0606E-06  at reduced coord.    0.5000    0.5000    0.0000
   Integrated=    6.0000E+01

 Cartesian components of stress tensor (hartree/bohr^3)
  sigma(1 1)=  8.30749113E-03  sigma(3 2)=  0.00000000E+00
  sigma(2 2)=  8.30749113E-03  sigma(3 1)=  0.00000000E+00
  sigma(3 3)=  8.41660594E-03  sigma(2 1)=  0.00000000E+00

-Cartesian components of stress tensor (GPa)         [Pressure= -2.4548E+02 GPa]
- sigma(1 1)=  2.44414786E+02  sigma(3 2)=  0.00000000E+00
- sigma(2 2)=  2.44414786E+02  sigma(3 1)=  0.00000000E+00
- sigma(3 3)=  2.47625054E+02  sigma(2 1)=  0.00000000E+00

== END DATASET(S) ==============================================================

 -outvars: echo values of variables after computation  --------

 These variables are accessible in NetCDF format (Cs2TiI6o_OUT.nc)

            acell      7.7624316804E+00  7.7624316804E+00  7.7624316804E+00 Bohr
              amu      1.18710000E+02  7.89600000E+01
           diemac      1.20000000E+01
             ecut      2.25000000E+01 Hartree
           etotal     -3.9787464461E+02
            fcart      2.0325097539E-31  2.0325097539E-31 -1.9621480999E-03
                       2.0325097539E-31  2.0325097539E-31  1.9621480999E-03
                      -8.1300390156E-31 -6.0975292617E-31  1.4039020615E-03
                       4.0650195078E-31  2.0325097539E-31 -1.4039020615E-03
-          fftalg         112
             iscf          17
              ixc          11
              kpt      4.16666667E-02  4.16666667E-02  1.25000000E-01
                       1.25000000E-01  4.16666667E-02  1.25000000E-01
                       2.08333333E-01  4.16666667E-02  1.25000000E-01
                       2.91666667E-01  4.16666667E-02  1.25000000E-01
                       3.75000000E-01  4.16666667E-02  1.25000000E-01
                       4.58333333E-01  4.16666667E-02  1.25000000E-01
                       1.25000000E-01  1.25000000E-01  1.25000000E-01
                       2.08333333E-01  1.25000000E-01  1.25000000E-01
                       2.91666667E-01  1.25000000E-01  1.25000000E-01
                       3.75000000E-01  1.25000000E-01  1.25000000E-01
                       4.58333333E-01  1.25000000E-01  1.25000000E-01
                       2.08333333E-01  2.08333333E-01  1.25000000E-01
                       2.91666667E-01  2.08333333E-01  1.25000000E-01
                       3.75000000E-01  2.08333333E-01  1.25000000E-01
                       4.58333333E-01  2.08333333E-01  1.25000000E-01
                       2.91666667E-01  2.91666667E-01  1.25000000E-01
                       3.75000000E-01  2.91666667E-01  1.25000000E-01
                       4.58333333E-01  2.91666667E-01  1.25000000E-01
                       3.75000000E-01  3.75000000E-01  1.25000000E-01
                       4.58333333E-01  3.75000000E-01  1.25000000E-01
                       4.58333333E-01  4.58333333E-01  1.25000000E-01
                       4.16666667E-02  4.16666667E-02  3.75000000E-01
                       1.25000000E-01  4.16666667E-02  3.75000000E-01
                       2.08333333E-01  4.16666667E-02  3.75000000E-01
                       2.91666667E-01  4.16666667E-02  3.75000000E-01
                       3.75000000E-01  4.16666667E-02  3.75000000E-01
                       4.58333333E-01  4.16666667E-02  3.75000000E-01
                       1.25000000E-01  1.25000000E-01  3.75000000E-01
                       2.08333333E-01  1.25000000E-01  3.75000000E-01
                       2.91666667E-01  1.25000000E-01  3.75000000E-01
                       3.75000000E-01  1.25000000E-01  3.75000000E-01
                       4.58333333E-01  1.25000000E-01  3.75000000E-01
                       2.08333333E-01  2.08333333E-01  3.75000000E-01
                       2.91666667E-01  2.08333333E-01  3.75000000E-01
                       3.75000000E-01  2.08333333E-01  3.75000000E-01
                       4.58333333E-01  2.08333333E-01  3.75000000E-01
                       2.91666667E-01  2.91666667E-01  3.75000000E-01
                       3.75000000E-01  2.91666667E-01  3.75000000E-01
                       4.58333333E-01  2.91666667E-01  3.75000000E-01
                       3.75000000E-01  3.75000000E-01  3.75000000E-01
                       4.58333333E-01  3.75000000E-01  3.75000000E-01
                       4.58333333E-01  4.58333333E-01  3.75000000E-01
         kptrlatt       12    0    0      0   12    0      0    0    4
          kptrlen      9.31491802E+01
P           mkmem           7
            natom           4
            nband          31
            ngfft          36      36     100
             nkpt          42
            nstep         150
             nsym          16
           ntypat           2
              occ      2.000000  2.000000  2.000000  2.000000  2.000000  2.000000
                       2.000000  2.000000  2.000000  2.000000  2.000000  2.000000
                       2.000000  2.000000  2.000000  2.000000  2.000000  2.000000
                       2.000000  2.000000  2.000000  2.000000  2.000000  2.000000
                       2.000000  2.000000  2.000000  2.000000  2.000000  2.000000
                       0.000000
           prtcif           1
            rprim      1.0000000000E+00  0.0000000000E+00  0.0000000000E+00
                       0.0000000000E+00  1.0000000000E+00  0.0000000000E+00
                       0.0000000000E+00  0.0000000000E+00  2.9414414678E+00
           shiftk      5.00000000E-01  5.00000000E-01  5.00000000E-01
          spgroup         129
           strten      8.3074911319E-03  8.3074911319E-03  8.4166059441E-03
                       0.0000000000E+00  0.0000000000E+00  0.0000000000E+00
           symrel      1  0  0   0  1  0   0  0  1      -1  0  0   0 -1  0   0  0 -1
                      -1  0  0   0  1  0   0  0 -1       1  0  0   0 -1  0   0  0  1
                      -1  0  0   0 -1  0   0  0  1       1  0  0   0  1  0   0  0 -1
                       1  0  0   0 -1  0   0  0 -1      -1  0  0   0  1  0   0  0  1
                       0  1  0   1  0  0   0  0  1       0 -1  0  -1  0  0   0  0 -1
                       0 -1  0   1  0  0   0  0 -1       0  1  0  -1  0  0   0  0  1
                       0 -1  0  -1  0  0   0  0  1       0  1  0   1  0  0   0  0 -1
                       0  1  0  -1  0  0   0  0 -1       0 -1  0   1  0  0   0  0  1
            tnons      0.0000000  0.0000000  0.0000000     0.5000000  0.5000000  0.0000000
                       0.5000000  0.5000000  0.0000000     0.0000000  0.0000000  0.0000000
                       0.0000000  0.0000000  0.0000000     0.5000000  0.5000000  0.0000000
                       0.5000000  0.5000000  0.0000000     0.0000000  0.0000000  0.0000000
                       0.5000000  0.5000000  0.0000000     0.0000000  0.0000000  0.0000000
                       0.0000000  0.0000000  0.0000000     0.5000000  0.5000000  0.0000000
                       0.5000000  0.5000000  0.0000000     0.0000000  0.0000000  0.0000000
                       0.0000000  0.0000000  0.0000000     0.5000000  0.5000000  0.0000000
           toldfe      1.00000000E-06 Hartree
            typat      1  1  2  2
           vdw_xc           5
              wtk        0.01389    0.02778    0.02778    0.02778    0.02778    0.02778
                         0.01389    0.02778    0.02778    0.02778    0.02778    0.01389
                         0.02778    0.02778    0.02778    0.01389    0.02778    0.02778
                         0.01389    0.02778    0.01389    0.01389    0.02778    0.02778
                         0.02778    0.02778    0.02778    0.01389    0.02778    0.02778
                         0.02778    0.02778    0.01389    0.02778    0.02778    0.02778
                         0.01389    0.02778    0.02778    0.01389    0.02778    0.01389
           xangst      2.0538509643E+00  0.0000000000E+00  4.6664677603E+00
                       0.0000000000E+00  2.0538509643E+00  7.4160970295E+00
                       2.0538509643E+00  0.0000000000E+00  7.3843319666E+00
                       0.0000000000E+00  2.0538509643E+00  4.6982328231E+00
            xcart      3.8812158402E+00  0.0000000000E+00  8.8183460748E+00
                       0.0000000000E+00  3.8812158402E+00  1.4014392361E+01
                       3.8812158402E+00  0.0000000000E+00  1.3954365091E+01
                       0.0000000000E+00  3.8812158402E+00  8.8783733442E+00
             xred      5.0000000000E-01  0.0000000000E+00  3.8621500000E-01
                       0.0000000000E+00  5.0000000000E-01  6.1378500000E-01
                       5.0000000000E-01  0.0000000000E+00  6.1115600000E-01
                       0.0000000000E+00  5.0000000000E-01  3.8884400000E-01
            znucl       50.00000   34.00000

 Suggested references for the acknowledgment of ABINIT usage.

 Calculation completed.
.Delivered   0 WARNINGs and   0 COMMENTs to log file.

--- !FinalSummary
program: abinit
version: 9.2.2
start_datetime: Sat Feb 24 13:10:53 2024
end_datetime: Sat Feb 24 13:13:11 2024
overall_cpu_time:         826.5
overall_wall_time:         826.5
exit_requested_by_user: no
timelimit: 0
pseudos:
    Sn  : c918e999fc214fef37654f9ff7d5f03d
    Se  : f801923bd422df98a30264e8ccc86374
usepaw: 0
mpi_procs: 6
omp_threads: 1
num_warnings: 0
num_comments: 0
...