.Version 9.2.2 of ABINIT

 ABINIT is a project of the Universite Catholique de Louvain,
 Corning Inc. and other collaborators, see ~abinit/doc/developers/contributors.txt .
 acknowledgments of the ABINIT effort.

.Starting date : Thu 29 Feb 2024.
- ( at 08h59 )

- The starting date is more than 3 years after the initial release
- of this version of ABINIT, namely Nov 2020.
- This version of ABINIT is not supported anymore.
- Action: please, switch to a more recent version of ABINIT.
- input  file    -> Cs2TiI6.in
- output file    -> Cs2TiI6.out
- root for input  files -> Cs2TiI6i
- root for output files -> Cs2TiI6o

 DATASET    1 : space group P4 m m (# 99); Bravais tP (primitive tetrag.)
     intxc =       0    ionmov =       0      iscf =      17    lmnmax =       6
     lnmax =       6     mgfft =     256  mpssoang =       3    mqgrid =   12553
     natom =      18  nloc_mem =       1    nspden =       1   nspinor =       1
    nsppol =       1      nsym =       8    n1xccc =    2501    ntypat =       2
    occopt =       1   xclevel =       2
-    mband =         153        mffmem =           1         mkmem =           4
       mpw =       18112          nfft =      331776          nkpt =          21
  Rough estimation (10% accuracy) of disk space for files :

[...]

 DATASET    3 : space group P4 m m (# 99); Bravais tP (primitive tetrag.)
     intxc =       0    ionmov =       0      iscf =      -3    lmnmax =       6
     lnmax =       6     mgfft =     256  mpssoang =       3    mqgrid =   12553
     natom =      18  nloc_mem =       1    nspden =       1   nspinor =       1
    nsppol =       1      nsym =       8    n1xccc =    2501    ntypat =       2
    occopt =       1   xclevel =       2
-    mband =         153        mffmem =           1         mkmem =           4
       mpw =       18112          nfft =      331776          nkpt =          21
  Rough estimation (10% accuracy) of disk space for files :

------------- Echo of variables that govern the present computation ------------
-
- outvars: echo of selected default values
-   iomode0 =  0 , fftalg0 =112 , wfoptalg0 =  0
-
- outvars: echo of global parameters not present in the input file
-  max_nthreads =    0
-
 -outvars: echo values of preprocessed input variables --------
            acell      7.7624316804E+00  7.7624316804E+00  7.7624316804E+00 Bohr
              amu      1.18710000E+02  7.89600000E+01
           diemac      1.20000000E+01
        dosdeltae1     0.00000000E+00 Hartree
        dosdeltae2     0.00000000E+00 Hartree
        dosdeltae3     1.00000000E-03 Hartree
             ecut      2.25000000E+01 Hartree
-          fftalg         112
           getden1          0
           getden2          1
           getden3          1
           getwfk1          0
           getwfk2          0
           getwfk3          1
           iatsph3       1   18
             iscf1         17
             iscf2         -2
             iscf3         -3
           istwfk2       7    0    0    0    0    0    0    0    0    0
                         4    0    0    0    0    0    0    0    0    0
                         0    0    2    0    0    0    0    0    0    0
                         0    0    0    0    0    0    0    0    0    0
                         9    0    0    0    0    0    0    0    8    0
              ixc     -101130
           jdtset        1    2    3
              kpt1     4.16666667E-02  4.16666667E-02  2.50000000E-01
                       1.25000000E-01  4.16666667E-02  2.50000000E-01
                       2.08333333E-01  4.16666667E-02  2.50000000E-01
                       2.91666667E-01  4.16666667E-02  2.50000000E-01
                       3.75000000E-01  4.16666667E-02  2.50000000E-01
                       4.58333333E-01  4.16666667E-02  2.50000000E-01
                       1.25000000E-01  1.25000000E-01  2.50000000E-01
                       2.08333333E-01  1.25000000E-01  2.50000000E-01
                       2.91666667E-01  1.25000000E-01  2.50000000E-01
                       3.75000000E-01  1.25000000E-01  2.50000000E-01
                       4.58333333E-01  1.25000000E-01  2.50000000E-01
                       2.08333333E-01  2.08333333E-01  2.50000000E-01
                       2.91666667E-01  2.08333333E-01  2.50000000E-01
                       3.75000000E-01  2.08333333E-01  2.50000000E-01
                       4.58333333E-01  2.08333333E-01  2.50000000E-01
                       2.91666667E-01  2.91666667E-01  2.50000000E-01
                       3.75000000E-01  2.91666667E-01  2.50000000E-01
                       4.58333333E-01  2.91666667E-01  2.50000000E-01
                       3.75000000E-01  3.75000000E-01  2.50000000E-01
                       4.58333333E-01  3.75000000E-01  2.50000000E-01
                       4.58333333E-01  4.58333333E-01  2.50000000E-01
              kpt2     5.00000000E-01  5.00000000E-01  0.00000000E+00
                       4.50000000E-01  4.50000000E-01  5.00000000E-02
                       4.00000000E-01  4.00000000E-01  1.00000000E-01
                       3.50000000E-01  3.50000000E-01  1.50000000E-01
                       3.00000000E-01  3.00000000E-01  2.00000000E-01
                       2.50000000E-01  2.50000000E-01  2.50000000E-01
                       2.00000000E-01  2.00000000E-01  3.00000000E-01
                       1.50000000E-01  1.50000000E-01  3.50000000E-01
                       1.00000000E-01  1.00000000E-01  4.00000000E-01
                       5.00000000E-02  5.00000000E-02  4.50000000E-01
                       0.00000000E+00  0.00000000E+00  5.00000000E-01
                       0.00000000E+00  0.00000000E+00  4.58333333E-01
                       0.00000000E+00  0.00000000E+00  4.16666667E-01
                       0.00000000E+00  0.00000000E+00  3.75000000E-01
                       0.00000000E+00  0.00000000E+00  3.33333333E-01
                       0.00000000E+00  0.00000000E+00  2.91666667E-01
                       0.00000000E+00  0.00000000E+00  2.50000000E-01
                       0.00000000E+00  0.00000000E+00  2.08333333E-01
                       0.00000000E+00  0.00000000E+00  1.66666667E-01
                       0.00000000E+00  0.00000000E+00  1.25000000E-01
                       0.00000000E+00  0.00000000E+00  8.33333333E-02
                       0.00000000E+00  0.00000000E+00  4.16666667E-02
                       0.00000000E+00  0.00000000E+00  0.00000000E+00
                       2.77777778E-02  2.77777778E-02  2.77777778E-02
                       5.55555556E-02  5.55555556E-02  5.55555556E-02
                       8.33333333E-02  8.33333333E-02  8.33333333E-02
                       1.11111111E-01  1.11111111E-01  1.11111111E-01
                       1.38888889E-01  1.38888889E-01  1.38888889E-01
                       1.66666667E-01  1.66666667E-01  1.66666667E-01
                       1.94444444E-01  1.94444444E-01  1.94444444E-01
                       2.22222222E-01  2.22222222E-01  2.22222222E-01
                       2.50000000E-01  2.50000000E-01  2.50000000E-01
                       2.77777778E-01  2.77777778E-01  2.77777778E-01
                       3.05555556E-01  3.05555556E-01  3.05555556E-01
                       3.33333333E-01  3.33333333E-01  3.33333333E-01
                       3.61111111E-01  3.61111111E-01  3.61111111E-01
                       3.88888889E-01  3.88888889E-01  3.88888889E-01
                       4.16666667E-01  4.16666667E-01  4.16666667E-01
                       4.44444444E-01  4.44444444E-01  4.44444444E-01
                       4.72222222E-01  4.72222222E-01  4.72222222E-01
                       5.00000000E-01  5.00000000E-01  5.00000000E-01
                       4.37500000E-01  5.00000000E-01  5.00000000E-01
                       3.75000000E-01  5.00000000E-01  5.00000000E-01
                       3.12500000E-01  5.00000000E-01  5.00000000E-01
                       2.50000000E-01  5.00000000E-01  5.00000000E-01
                       1.87500000E-01  5.00000000E-01  5.00000000E-01
                       1.25000000E-01  5.00000000E-01  5.00000000E-01
                       6.25000000E-02  5.00000000E-01  5.00000000E-01
                       0.00000000E+00  5.00000000E-01  5.00000000E-01
                       0.00000000E+00  5.00000000E-01  4.37500000E-01
              kpt3     4.16666667E-02  4.16666667E-02  2.50000000E-01
                       1.25000000E-01  4.16666667E-02  2.50000000E-01
                       2.08333333E-01  4.16666667E-02  2.50000000E-01
                       2.91666667E-01  4.16666667E-02  2.50000000E-01
                       3.75000000E-01  4.16666667E-02  2.50000000E-01
                       4.58333333E-01  4.16666667E-02  2.50000000E-01
                       1.25000000E-01  1.25000000E-01  2.50000000E-01
                       2.08333333E-01  1.25000000E-01  2.50000000E-01
                       2.91666667E-01  1.25000000E-01  2.50000000E-01
                       3.75000000E-01  1.25000000E-01  2.50000000E-01
                       4.58333333E-01  1.25000000E-01  2.50000000E-01
                       2.08333333E-01  2.08333333E-01  2.50000000E-01
                       2.91666667E-01  2.08333333E-01  2.50000000E-01
                       3.75000000E-01  2.08333333E-01  2.50000000E-01
                       4.58333333E-01  2.08333333E-01  2.50000000E-01
                       2.91666667E-01  2.91666667E-01  2.50000000E-01
                       3.75000000E-01  2.91666667E-01  2.50000000E-01
                       4.58333333E-01  2.91666667E-01  2.50000000E-01
                       3.75000000E-01  3.75000000E-01  2.50000000E-01
                       4.58333333E-01  3.75000000E-01  2.50000000E-01
                       4.58333333E-01  4.58333333E-01  2.50000000E-01
                       outvar_i_n : Printing only first  50 k-points.
           kptopt1          1
           kptopt2         -5
           kptopt3          1
         kptrlatt       12    0    0      0   12    0      0    0    2
          kptrlen1     9.31491802E+01
          kptrlen2     3.00000000E+01
          kptrlen3     9.31491802E+01
P           mkmem1          4
P           mkmem2         10
P           mkmem3          4
            natom          18
           natsph3       2
            nband1        153
            nband2        153
            nband3        153
           nbdbuf1          0
           nbdbuf2          2
           nbdbuf3          2
           ndtset           3
            ngfft          36      36     256
             nkpt1         21
             nkpt2         57
             nkpt3         21
            nstep1       1000
            nstep2        300
            nstep3        300
             nsym           8
           ntypat           2
              occ      2.000000  2.000000  2.000000  2.000000  2.000000  2.000000
                       2.000000  2.000000  2.000000  2.000000  2.000000  2.000000
                       2.000000  2.000000  2.000000  2.000000  2.000000  2.000000
                       2.000000  2.000000  2.000000  2.000000  2.000000  2.000000
[...]
              kpt1     4.16666667E-02  4.16666667E-02  2.50000000E-01
                       1.25000000E-01  4.16666667E-02  2.50000000E-01
                       2.08333333E-01  4.16666667E-02  2.50000000E-01
                       2.91666667E-01  4.16666667E-02  2.50000000E-01
                       3.75000000E-01  4.16666667E-02  2.50000000E-01
                       4.58333333E-01  4.16666667E-02  2.50000000E-01
                       1.25000000E-01  1.25000000E-01  2.50000000E-01
                       2.08333333E-01  1.25000000E-01  2.50000000E-01
                       2.91666667E-01  1.25000000E-01  2.50000000E-01
                       3.75000000E-01  1.25000000E-01  2.50000000E-01
                       4.58333333E-01  1.25000000E-01  2.50000000E-01
                       2.08333333E-01  2.08333333E-01  2.50000000E-01
                       2.91666667E-01  2.08333333E-01  2.50000000E-01
                       3.75000000E-01  2.08333333E-01  2.50000000E-01
                       4.58333333E-01  2.08333333E-01  2.50000000E-01
                       2.91666667E-01  2.91666667E-01  2.50000000E-01
                       3.75000000E-01  2.91666667E-01  2.50000000E-01
                       4.58333333E-01  2.91666667E-01  2.50000000E-01
                       3.75000000E-01  3.75000000E-01  2.50000000E-01
                       4.58333333E-01  3.75000000E-01  2.50000000E-01
                       4.58333333E-01  4.58333333E-01  2.50000000E-01
              kpt2     5.00000000E-01  5.00000000E-01  0.00000000E+00
                       4.50000000E-01  4.50000000E-01  5.00000000E-02
                       4.00000000E-01  4.00000000E-01  1.00000000E-01
                       3.50000000E-01  3.50000000E-01  1.50000000E-01
                       3.00000000E-01  3.00000000E-01  2.00000000E-01
                       2.50000000E-01  2.50000000E-01  2.50000000E-01
                       2.00000000E-01  2.00000000E-01  3.00000000E-01
                       1.50000000E-01  1.50000000E-01  3.50000000E-01
                       1.00000000E-01  1.00000000E-01  4.00000000E-01
                       5.00000000E-02  5.00000000E-02  4.50000000E-01
                       0.00000000E+00  0.00000000E+00  5.00000000E-01
                       0.00000000E+00  0.00000000E+00  4.58333333E-01
                       0.00000000E+00  0.00000000E+00  4.16666667E-01
                       0.00000000E+00  0.00000000E+00  3.75000000E-01
                       0.00000000E+00  0.00000000E+00  3.33333333E-01
                       0.00000000E+00  0.00000000E+00  2.91666667E-01
                       0.00000000E+00  0.00000000E+00  2.50000000E-01
                       0.00000000E+00  0.00000000E+00  2.08333333E-01
                       0.00000000E+00  0.00000000E+00  1.66666667E-01
                       0.00000000E+00  0.00000000E+00  1.25000000E-01
                       0.00000000E+00  0.00000000E+00  8.33333333E-02
                       0.00000000E+00  0.00000000E+00  4.16666667E-02
                       0.00000000E+00  0.00000000E+00  0.00000000E+00
                       2.77777778E-02  2.77777778E-02  2.77777778E-02
                       5.55555556E-02  5.55555556E-02  5.55555556E-02
                       8.33333333E-02  8.33333333E-02  8.33333333E-02
                       1.11111111E-01  1.11111111E-01  1.11111111E-01
                       1.38888889E-01  1.38888889E-01  1.38888889E-01
                       1.66666667E-01  1.66666667E-01  1.66666667E-01
                       1.94444444E-01  1.94444444E-01  1.94444444E-01
                       2.22222222E-01  2.22222222E-01  2.22222222E-01
                       2.50000000E-01  2.50000000E-01  2.50000000E-01
                       2.77777778E-01  2.77777778E-01  2.77777778E-01
                       3.05555556E-01  3.05555556E-01  3.05555556E-01
                       3.33333333E-01  3.33333333E-01  3.33333333E-01
                       3.61111111E-01  3.61111111E-01  3.61111111E-01
                       3.88888889E-01  3.88888889E-01  3.88888889E-01
                       4.16666667E-01  4.16666667E-01  4.16666667E-01
                       4.44444444E-01  4.44444444E-01  4.44444444E-01
                       4.72222222E-01  4.72222222E-01  4.72222222E-01
                       5.00000000E-01  5.00000000E-01  5.00000000E-01
                       4.37500000E-01  5.00000000E-01  5.00000000E-01
                       3.75000000E-01  5.00000000E-01  5.00000000E-01
                       3.12500000E-01  5.00000000E-01  5.00000000E-01
                       2.50000000E-01  5.00000000E-01  5.00000000E-01
                       1.87500000E-01  5.00000000E-01  5.00000000E-01
                       1.25000000E-01  5.00000000E-01  5.00000000E-01
                       6.25000000E-02  5.00000000E-01  5.00000000E-01
                       0.00000000E+00  5.00000000E-01  5.00000000E-01
                       0.00000000E+00  5.00000000E-01  4.37500000E-01
              kpt3     4.16666667E-02  4.16666667E-02  2.50000000E-01
                       1.25000000E-01  4.16666667E-02  2.50000000E-01
                       2.08333333E-01  4.16666667E-02  2.50000000E-01
                       2.91666667E-01  4.16666667E-02  2.50000000E-01
                       3.75000000E-01  4.16666667E-02  2.50000000E-01
                       4.58333333E-01  4.16666667E-02  2.50000000E-01
                       1.25000000E-01  1.25000000E-01  2.50000000E-01
                       2.08333333E-01  1.25000000E-01  2.50000000E-01
                       2.91666667E-01  1.25000000E-01  2.50000000E-01
                       3.75000000E-01  1.25000000E-01  2.50000000E-01
                       4.58333333E-01  1.25000000E-01  2.50000000E-01
                       2.08333333E-01  2.08333333E-01  2.50000000E-01
                       2.91666667E-01  2.08333333E-01  2.50000000E-01
                       3.75000000E-01  2.08333333E-01  2.50000000E-01
                       4.58333333E-01  2.08333333E-01  2.50000000E-01
                       2.91666667E-01  2.91666667E-01  2.50000000E-01
                       3.75000000E-01  2.91666667E-01  2.50000000E-01
                       4.58333333E-01  2.91666667E-01  2.50000000E-01
                       3.75000000E-01  3.75000000E-01  2.50000000E-01
                       4.58333333E-01  3.75000000E-01  2.50000000E-01
                       4.58333333E-01  4.58333333E-01  2.50000000E-01
                       outvar_i_n : Printing only first  50 k-points.
           kptopt1          1
           kptopt2         -5
           kptopt3          1
         kptrlatt       12    0    0      0   12    0      0    0    2
          kptrlen1     9.31491802E+01
          kptrlen2     3.00000000E+01
          kptrlen3     9.31491802E+01
P           mkmem1          4
P           mkmem2         10
P           mkmem3          4
            natom          18
           natsph3       2
            nband1        153
            nband2        153
            nband3        153
           nbdbuf1          0
           nbdbuf2          2
           nbdbuf3          2
           ndtset           3
            ngfft          36      36     256
             nkpt1         21
             nkpt2         57
             nkpt3         21
            nstep1       1000
            nstep2        300
            nstep3        300
             nsym           8
           ntypat           2
              occ      2.000000  2.000000  2.000000  2.000000  2.000000  2.000000
                       2.000000  2.000000  2.000000  2.000000  2.000000  2.000000
                       2.000000  2.000000  2.000000  2.000000  2.000000  2.000000
                       2.000000  2.000000  2.000000  2.000000  2.000000  2.000000
                       2.000000  2.000000  2.000000  2.000000  2.000000  2.000000
                       2.000000  2.000000  2.000000  2.000000  2.000000  2.000000
                       2.000000  2.000000  2.000000  2.000000  2.000000  2.000000
                       2.000000  2.000000  2.000000  2.000000  2.000000  2.000000
                       2.000000  2.000000  2.000000  2.000000  2.000000  2.000000
                       2.000000  2.000000  2.000000  2.000000  2.000000  2.000000
                       2.000000  2.000000  2.000000  2.000000  2.000000  2.000000
                       2.000000  2.000000  2.000000  2.000000  2.000000  2.000000
                       2.000000  2.000000  2.000000  2.000000  2.000000  2.000000
                       2.000000  2.000000  2.000000  2.000000  2.000000  2.000000
                       2.000000  2.000000  2.000000  2.000000  2.000000  2.000000
                       2.000000  2.000000  2.000000  2.000000  2.000000  2.000000
                       2.000000  2.000000  2.000000  2.000000  2.000000  2.000000
                       2.000000  2.000000  2.000000  2.000000  2.000000  2.000000
                       2.000000  2.000000  2.000000  2.000000  2.000000  2.000000
                       2.000000  2.000000  2.000000  2.000000  2.000000  2.000000
                       2.000000  2.000000  2.000000  2.000000  2.000000  2.000000
                       2.000000  2.000000  2.000000  2.000000  2.000000  2.000000
                       2.000000  2.000000  2.000000  0.000000  0.000000  0.000000
                       0.000000  0.000000  0.000000  0.000000  0.000000  0.000000
                       0.000000  0.000000  0.000000  0.000000  0.000000  0.000000
                       0.000000  0.000000  0.000000
           prtcif           1
           prtdos1          0
           prtdos2          0
           prtdos3          3
            rprim      1.0000000000E+00  0.0000000000E+00  0.0000000000E+00
                       0.0000000000E+00  1.0000000000E+00  0.0000000000E+00
                       0.0000000000E+00  0.0000000000E+00  7.5729970188E+00
           shiftk      5.00000000E-01  5.00000000E-01  5.00000000E-01
          spgroup          99
           strten1     1.4545914852E-02  1.4545914852E-02  1.4198336553E-02
                       0.0000000000E+00  0.0000000000E+00  0.0000000000E+00
           symrel      1  0  0   0  1  0   0  0  1       1  0  0   0 -1  0   0  0  1
                      -1  0  0   0 -1  0   0  0  1      -1  0  0   0  1  0   0  0  1
                       0  1  0   1  0  0   0  0  1       0  1  0  -1  0  0   0  0  1
                       0 -1  0  -1  0  0   0  0  1       0 -1  0   1  0  0   0  0  1
            tnons      0.0000000  0.0000000  0.0000000     0.0000000  0.0000000  0.0000000
                      -0.0000000  0.0000000  0.0000000    -0.0000000  0.0000000  0.0000000
                       0.5000000  0.5000000  0.0000000     0.5000000  0.5000000  0.0000000
                       0.5000000  0.5000000  0.0000000     0.5000000  0.5000000  0.0000000
           tolwfr      1.00000000E-20
            typat      1  1  1  1  1  1  1  1  1  2  2  2  2  2  2  2  2  2
           vdw_xc           5
              wtk1       0.02778    0.05556    0.05556    0.05556    0.05556    0.05556
                         0.02778    0.05556    0.05556    0.05556    0.05556    0.02778
                         0.05556    0.05556    0.05556    0.02778    0.05556    0.05556
                         0.02778    0.05556    0.02778
              wtk2       1.00000    1.00000    1.00000    1.00000    1.00000    1.00000
                         1.00000    1.00000    1.00000    1.00000    1.00000    1.00000
                         1.00000    1.00000    1.00000    1.00000    1.00000    1.00000
                         1.00000    1.00000    1.00000    1.00000    1.00000    1.00000
                         1.00000    1.00000    1.00000    1.00000    1.00000    1.00000
                         1.00000    1.00000    1.00000    1.00000    1.00000    1.00000
                         1.00000    1.00000    1.00000    1.00000    1.00000    1.00000
                         1.00000    1.00000    1.00000    1.00000    1.00000    1.00000
                         1.00000    1.00000
              wtk3       0.02778    0.05556    0.05556    0.05556    0.05556    0.05556
                         0.02778    0.05556    0.05556    0.05556    0.05556    0.02778
                         0.05556    0.05556    0.05556    0.02778    0.05556    0.05556
                         0.02778    0.05556    0.02778
                       outvars : Printing only first  50 k-points.
           xangst      2.0538509643E+00  0.0000000000E+00  4.6664532449E+00
                       0.0000000000E+00  2.0538509643E+00  7.4160863946E+00
                       2.0538509643E+00  0.0000000000E+00  1.0102197795E+01
                       0.0000000000E+00  2.0538509643E+00  1.2851830945E+01
                       2.0538509643E+00  0.0000000000E+00  1.5537911238E+01
                       0.0000000000E+00  2.0538509643E+00  1.8287544388E+01
                       2.0538509643E+00  0.0000000000E+00  2.0973655789E+01
                       0.0000000000E+00  2.0538509643E+00  2.3723288938E+01
                       2.0538509643E+00  0.0000000000E+00  2.6409369232E+01
                       0.0000000000E+00  2.0538509643E+00  4.6982452269E+00
                       2.0538509643E+00  0.0000000000E+00  7.3843255202E+00
                       0.0000000000E+00  2.0538509643E+00  1.0133958670E+01
                       2.0538509643E+00  0.0000000000E+00  1.2820070071E+01
                       0.0000000000E+00  2.0538509643E+00  1.5569703220E+01
                       2.0538509643E+00  0.0000000000E+00  1.8255783514E+01
                       0.0000000000E+00  2.0538509643E+00  2.1005416663E+01
                       2.0538509643E+00  0.0000000000E+00  2.3691528064E+01
                       0.0000000000E+00  2.0538509643E+00  2.6441161214E+01
            xcart      3.8812158402E+00  0.0000000000E+00  8.8183186449E+00
                       0.0000000000E+00  3.8812158402E+00  1.4014372264E+01
                       3.8812158402E+00  0.0000000000E+00  1.9090387174E+01
                       0.0000000000E+00  3.8812158402E+00  2.4286440792E+01
                       3.8812158402E+00  0.0000000000E+00  2.9362396918E+01
                       0.0000000000E+00  3.8812158402E+00  3.4558450536E+01
                       3.8812158402E+00  0.0000000000E+00  3.9634465446E+01
                       0.0000000000E+00  3.8812158402E+00  4.4830519065E+01
                       3.8812158402E+00  0.0000000000E+00  4.9906475190E+01
                       0.0000000000E+00  3.8812158402E+00  8.8783967840E+00
                       3.8812158402E+00  0.0000000000E+00  1.3954352909E+01
                       0.0000000000E+00  3.8812158402E+00  1.9150406528E+01
                       3.8812158402E+00  0.0000000000E+00  2.4226421438E+01
                       0.0000000000E+00  3.8812158402E+00  2.9422475057E+01
                       3.8812158402E+00  0.0000000000E+00  3.4498431182E+01
                       0.0000000000E+00  3.8812158402E+00  3.9694484801E+01
                       3.8812158402E+00  0.0000000000E+00  4.4770499711E+01
                       0.0000000000E+00  3.8812158402E+00  4.9966553329E+01
             xred      5.0000000000E-01  0.0000000000E+00  1.5001000000E-01
                       0.0000000000E+00  5.0000000000E-01  2.3840100000E-01
                       5.0000000000E-01  0.0000000000E+00  3.2475000000E-01
                       0.0000000000E+00  5.0000000000E-01  4.1314100000E-01
                       5.0000000000E-01  0.0000000000E+00  4.9948900000E-01
                       0.0000000000E+00  5.0000000000E-01  5.8788000000E-01
                       5.0000000000E-01  0.0000000000E+00  6.7422900000E-01
                       0.0000000000E+00  5.0000000000E-01  7.6262000000E-01
                       5.0000000000E-01  0.0000000000E+00  8.4896800000E-01
                       0.0000000000E+00  5.0000000000E-01  1.5103200000E-01
                       5.0000000000E-01  0.0000000000E+00  2.3738000000E-01
                       0.0000000000E+00  5.0000000000E-01  3.2577100000E-01
                       5.0000000000E-01  0.0000000000E+00  4.1212000000E-01
                       0.0000000000E+00  5.0000000000E-01  5.0051100000E-01
                       5.0000000000E-01  0.0000000000E+00  5.8685900000E-01
                       0.0000000000E+00  5.0000000000E-01  6.7525000000E-01
                       5.0000000000E-01  0.0000000000E+00  7.6159900000E-01
                       0.0000000000E+00  5.0000000000E-01  8.4999000000E-01
            znucl       50.00000   34.00000

- Timing analysis has been suppressed with timopt=0

 Suggested references for the acknowledgment of ABINIT usage.

 Calculation completed.
.Delivered   1 WARNINGs and   0 COMMENTs to log file.