.Version 9.2.2 of ABINIT

 ABINIT is a project of the Universite Catholique de Louvain,
 Corning Inc. and other collaborators, see ~abinit/doc/developers/contributors.txt .
 acknowledgments of the ABINIT effort.

.Starting date : Sun 25 Feb 2024.
- ( at 10h00 )

- The starting date is more than 3 years after the initial release
- of this version of ABINIT, namely Nov 2020.
- This version of ABINIT is not supported anymore.
- Action: please, switch to a more recent version of ABINIT.
- input  file    -> Cs2TiI6.in
- output file    -> Cs2TiI6.out
- root for input  files -> Cs2TiI6i
- root for output files -> Cs2TiI6o

 Symmetries : space group P4 m m (# 99); Bravais tP (primitive tetrag.)
     intxc =       0    ionmov =       0      iscf =      17    lmnmax =       6
     lnmax =       6     mgfft =     180  mpssoang =       3    mqgrid =    8166
     natom =      10  nloc_mem =       1    nspden =       1   nspinor =       1
    nsppol =       1      nsym =       8    n1xccc =    2501    ntypat =       2
    occopt =       1   xclevel =       2
-    mband =          77        mffmem =           1         mkmem =           3
       mpw =       11772          nfft =      233280          nkpt =          10
  Rough estimation (10% accuracy) of disk space for files :

------------- Echo of variables that govern the present computation ------------
-
- outvars: echo of selected default values
-   iomode0 =  0 , fftalg0 =112 , wfoptalg0 =  0
-
- outvars: echo of global parameters not present in the input file
-  max_nthreads =    0
-
 -outvars: echo values of preprocessed input variables --------
            acell      7.7624316804E+00  7.7624316804E+00  7.7624316804E+00 Bohr
              amu      1.18710000E+02  7.89600000E+01
           diemac      1.20000000E+01
             ecut      2.25000000E+01 Hartree
-          fftalg         112
             iscf          17
              ixc          11
              kpt      6.25000000E-02  6.25000000E-02  5.00000000E-01
                       1.87500000E-01  6.25000000E-02  5.00000000E-01
                       3.12500000E-01  6.25000000E-02  5.00000000E-01
                       4.37500000E-01  6.25000000E-02  5.00000000E-01
                       1.87500000E-01  1.87500000E-01  5.00000000E-01
                       3.12500000E-01  1.87500000E-01  5.00000000E-01
                       4.37500000E-01  1.87500000E-01  5.00000000E-01
                       3.12500000E-01  3.12500000E-01  5.00000000E-01
                       4.37500000E-01  3.12500000E-01  5.00000000E-01
                       4.37500000E-01  4.37500000E-01  5.00000000E-01
         kptrlatt        8    0    0      0    8    0      0    0    1
          kptrlen      6.20994534E+01
P           mkmem           3
            natom          10
            nband          77
            ngfft          36      36     180
             nkpt          10
            nstep         150
             nsym           8
           ntypat           2
              occ      2.000000  2.000000  2.000000  2.000000  2.000000  2.000000
                       2.000000  2.000000  2.000000  2.000000  2.000000  2.000000
                       2.000000  2.000000  2.000000  2.000000  2.000000  2.000000
                       2.000000  2.000000  2.000000  2.000000  2.000000  2.000000
                       2.000000  2.000000  2.000000  2.000000  2.000000  2.000000
                       2.000000  2.000000  2.000000  2.000000  2.000000  2.000000
                       2.000000  2.000000  2.000000  2.000000  2.000000  2.000000
                       2.000000  2.000000  2.000000  2.000000  2.000000  2.000000
                       2.000000  2.000000  2.000000  2.000000  2.000000  2.000000
                       2.000000  2.000000  2.000000  2.000000  2.000000  2.000000
                       2.000000  2.000000  2.000000  2.000000  2.000000  2.000000
                       2.000000  2.000000  2.000000  2.000000  2.000000  2.000000
                       2.000000  2.000000  2.000000  0.000000  0.000000
           prtcif           1
            rprim      1.0000000000E+00  0.0000000000E+00  0.0000000000E+00
                       0.0000000000E+00  1.0000000000E+00  0.0000000000E+00
                       0.0000000000E+00  0.0000000000E+00  4.9263938815E+00
           shiftk      5.00000000E-01  5.00000000E-01  5.00000000E-01
          spgroup          99
           symrel      1  0  0   0  1  0   0  0  1       1  0  0   0 -1  0   0  0  1
                      -1  0  0   0 -1  0   0  0  1      -1  0  0   0  1  0   0  0  1
                       0  1  0   1  0  0   0  0  1       0  1  0  -1  0  0   0  0  1
                       0 -1  0  -1  0  0   0  0  1       0 -1  0   1  0  0   0  0  1
            tnons      0.0000000  0.0000000  0.0000000     0.0000000  0.0000000  0.0000000
                       0.0000000  0.0000000  0.0000000     0.0000000  0.0000000  0.0000000
                       0.5000000  0.5000000  0.0000000     0.5000000  0.5000000  0.0000000
                       0.5000000  0.5000000  0.0000000     0.5000000  0.5000000  0.0000000
           toldfe      1.00000000E-06 Hartree
            typat      1  1  1  1  1  2  2  2  2  2
           vdw_xc           5
              wtk        0.06250    0.12500    0.12500    0.12500    0.06250    0.12500
                         0.12500    0.06250    0.12500    0.06250
           xangst      2.0538509643E+00  0.0000000000E+00  4.6664781898E+00
                       0.0000000000E+00  2.0538509643E+00  7.4161065825E+00
                       2.0538509643E+00  0.0000000000E+00  1.0102193440E+01
                       0.0000000000E+00  2.0538509643E+00  1.2851821833E+01
                       2.0538509643E+00  0.0000000000E+00  1.5537928927E+01
                       0.0000000000E+00  2.0538509643E+00  4.6982287211E+00
                       2.0538509643E+00  0.0000000000E+00  7.3843358150E+00
                       0.0000000000E+00  2.0538509643E+00  1.0133964208E+01
                       2.0538509643E+00  0.0000000000E+00  1.2820051065E+01
                       0.0000000000E+00  2.0538509643E+00  1.5569699694E+01
            xcart      3.8812158402E+00  0.0000000000E+00  8.8183657837E+00
                       0.0000000000E+00  3.8812158402E+00  1.4014410413E+01
                       3.8812158402E+00  0.0000000000E+00  1.9090378943E+01
                       0.0000000000E+00  3.8812158402E+00  2.4286423573E+01
                       3.8812158402E+00  0.0000000000E+00  2.9362430344E+01
                       0.0000000000E+00  3.8812158402E+00  8.8783655925E+00
                       3.8812158402E+00  0.0000000000E+00  1.3954372364E+01
                       0.0000000000E+00  3.8812158402E+00  1.9150416993E+01
                       3.8812158402E+00  0.0000000000E+00  2.4226385523E+01
                       0.0000000000E+00  3.8812158402E+00  2.9422468393E+01
             xred      5.0000000000E-01  0.0000000000E+00  2.3060100000E-01
                       0.0000000000E+00  5.0000000000E-01  3.6647800000E-01
                       5.0000000000E-01  0.0000000000E+00  4.9921500000E-01
                       0.0000000000E+00  5.0000000000E-01  6.3509200000E-01
                       5.0000000000E-01  0.0000000000E+00  7.6783000000E-01
                       0.0000000000E+00  5.0000000000E-01  2.3217000000E-01
                       5.0000000000E-01  0.0000000000E+00  3.6490800000E-01
                       0.0000000000E+00  5.0000000000E-01  5.0078500000E-01
                       5.0000000000E-01  0.0000000000E+00  6.3352200000E-01
                       0.0000000000E+00  5.0000000000E-01  7.6940000000E-01
            znucl       50.00000   34.00000

 chkinp: Checking input parameters for consistency.

== DATASET  1 ==================================================================
-   mpi_nproc: 4, omp_nthreads: -1 (-1 if OMP is not activated)

--- !DatasetInfo
iteration_state: {dtset: 1, }
dimensions: {natom: 10, nkpt: 10, mband: 77, nsppol: 1, nspinor: 1, nspden: 1, mpw: 11772, }
cutoff_energies: {ecut:  22.5, pawecutdg:  -1.0, }
electrons: {nelect:   1.50000000E+02, charge:   0.00000000E+00, occopt:   1.00000000E+00, tsmear:   1.00000000E-02, }
meta: {optdriver: 0, ionmov: 0, optcell: 0, iscf: 17, paral_kgb: 0, }
...

 Real(R)+Recip(G) space primitive vectors, cartesian coordinates (Bohr,Bohr^-1):
 R(1)=  7.7624317  0.0000000  0.0000000  G(1)=  0.1288256  0.0000000  0.0000000
 R(2)=  0.0000000  7.7624317  0.0000000  G(2)=  0.0000000  0.1288256  0.0000000
 R(3)=  0.0000000  0.0000000 38.2407959  G(3)=  0.0000000  0.0000000  0.0261501
 Unit cell volume ucvol=  2.3042124E+03 bohr^3
 Angles (23,13,12)=  9.00000000E+01  9.00000000E+01  9.00000000E+01 degrees

 getcut: wavevector=  0.0000  0.0000  0.0000  ngfft=  36  36 180
         ecut(hartree)=     22.500   => boxcut(ratio)=   2.17194

--- Pseudopotential description ------------------------------------------------
- pspini: atom type   1  psp file is ../../../Psps_for_tests/ATOMICDATA_NC/Sn.psp8
- pspatm: opening atomic psp file    ../../../Psps_for_tests/ATOMICDATA_NC/Sn.psp8
- Sn    ONCVPSP  r_core=  2.27  2.62  1.86
- 50.00000  14.00000    150810                znucl, zion, pspdat
    8   11    2    4       600   0.00000      pspcod,pspxc,lmax,lloc,mmax,r2well
    5.99000000000000    6.50000000000000    0.00000000000000   rchrg,fchrg,qchrg
     nproj     2     2     2
     extension_switch     1
  pspatm : epsatm=   32.65190642
         --- l  ekb(1:nproj) -->
             0    5.462393    0.682281
             1    4.443814    0.825686
             2   -5.382195   -1.704077
 pspatm: atomic psp has been read  and splines computed

- pspini: atom type   2  psp file is ../../../Psps_for_tests/ATOMICDATA_NC/Se.psp8
- pspatm: opening atomic psp file    ../../../Psps_for_tests/ATOMICDATA_NC/Se.psp8
- Se    ONCVPSP  r_core=  1.82  1.50  1.91
- 34.00000  16.00000    150729                znucl, zion, pspdat
    8   11    2    4       600   0.00000      pspcod,pspxc,lmax,lloc,mmax,r2well
    5.99000000000000    5.00000000000000    0.00000000000000   rchrg,fchrg,qchrg
     nproj     2     2     2
     extension_switch     1
  pspatm : epsatm=   29.53325930
         --- l  ekb(1:nproj) -->
             0    8.612261    0.939919
             1    6.984962    1.281898
             2   -9.322521   -3.856218
 pspatm: atomic psp has been read  and splines computed

   4.66388743E+04                                ecore*ucvol(ha*bohr**3)

_setup2: Arith. and geom. avg. npw (full set) are   11745.125   11745.115

--- !BeginCycle
iteration_state: {dtset: 1, }
solver: {iscf: 17, nstep: 150, nline: 4, wfoptalg: 0, }
tolerances: {toldfe: 1.00E-06, }
...

     iter   Etot(hartree)      deltaE(h)  residm     nres2
 ETOT  1  -976.97589647620    -9.770E+02 8.471E-01 2.386E+02
 ETOT  2  -996.10540527195    -1.913E+01 9.055E-02 1.555E+02
 ETOT  3  -994.85480265900     1.251E+00 1.766E-02 1.155E+01
 ETOT  4  -994.72014114886     1.347E-01 6.607E-03 6.691E-01
 ETOT  5  -994.70628114016     1.386E-02 3.596E-03 3.396E-01
 ETOT  6  -994.69991316534     6.368E-03 2.080E-03 2.677E-02
 ETOT  7  -994.69781536266     2.098E-03 2.450E-03 1.006E-02
[...]
  sigma(1 1)=  1.24265065E-02  sigma(3 2)=  0.00000000E+00
  sigma(2 2)=  1.24265065E-02  sigma(3 1)=  0.00000000E+00
  sigma(3 3)=  1.22121556E-02  sigma(2 1)=  0.00000000E+00

--- !ResultsGS
iteration_state: {dtset: 1, }
comment   : Summary of ground state results
lattice_vectors:
- [  7.7624317,   0.0000000,   0.0000000, ]
- [  0.0000000,   7.7624317,   0.0000000, ]
- [  0.0000000,   0.0000000,  38.2407959, ]
lattice_lengths: [   7.76243,    7.76243,   38.24080, ]
lattice_angles: [ 90.000,  90.000,  90.000, ] # degrees, (23, 13, 12)
lattice_volume:   2.3042124E+03
convergence: {deltae: -5.460E-09, res2:  8.593E-10, residm:  1.117E-04, diffor: null, }
etotal    :  -9.94696131E+02
entropy   :   0.00000000E+00
fermie    :   1.25093490E-01
cartesian_stress_tensor: # hartree/bohr^3
- [  1.24265065E-02,   0.00000000E+00,   0.00000000E+00, ]
- [  0.00000000E+00,   1.24265065E-02,   0.00000000E+00, ]
- [  0.00000000E+00,   0.00000000E+00,   1.22121556E-02, ]
pressure_GPa:  -3.6350E+02
xred      :
- [  5.0000E-01,   0.0000E+00,   2.3060E-01, Sn]
- [  0.0000E+00,   5.0000E-01,   3.6648E-01, Sn]
- [  5.0000E-01,   0.0000E+00,   4.9922E-01, Sn]
- [  0.0000E+00,   5.0000E-01,   6.3509E-01, Sn]
- [  5.0000E-01,   0.0000E+00,   7.6783E-01, Sn]
- [  0.0000E+00,   5.0000E-01,   2.3217E-01, Se]
- [  5.0000E-01,   0.0000E+00,   3.6491E-01, Se]
- [  0.0000E+00,   5.0000E-01,   5.0079E-01, Se]
- [  5.0000E-01,   0.0000E+00,   6.3352E-01, Se]
- [  0.0000E+00,   5.0000E-01,   7.6940E-01, Se]
cartesian_forces: # hartree/bohr
- [ -0.00000000E+00,  -0.00000000E+00,  -1.35817636E-02, ]
- [ -0.00000000E+00,  -0.00000000E+00,  -1.22123928E-02, ]
- [ -0.00000000E+00,  -0.00000000E+00,   8.24919280E-04, ]
- [ -0.00000000E+00,  -0.00000000E+00,   9.79457080E-03, ]
- [ -0.00000000E+00,  -0.00000000E+00,   1.46412084E-02, ]
- [ -0.00000000E+00,  -0.00000000E+00,  -1.49689172E-02, ]
- [ -0.00000000E+00,  -0.00000000E+00,  -7.78756334E-03, ]
- [ -0.00000000E+00,  -0.00000000E+00,  -1.37840581E-03, ]
- [ -0.00000000E+00,  -0.00000000E+00,   1.11883515E-02, ]
- [ -0.00000000E+00,  -0.00000000E+00,   1.34799928E-02, ]
force_length_stats: {min:   8.24919280E-04, max:   1.49689172E-02, mean:   9.98580855E-03, }
...

 Integrated electronic density in atomic spheres:
 Atom  Sphere_radius  Integrated_density
    1        2.00000         10.54840538
    2        2.00000         10.57417918
    3        2.00000         10.56826157
    4        2.00000         10.57188130
    5        2.00000         10.55557829
    6        2.00000         13.29936633
    7        2.00000         13.30729162
    8        2.00000         13.31892994
    9        2.00000         13.30921965
   10        2.00000         13.29249277

 ----iterations are completed or convergence reached----

 Mean square residual over all n,k,spin=   17.388E-08; max=  11.169E-05
 reduced coordinates (array xred) for   10 atoms
       0.500000000000      0.000000000000      0.230601000000
       0.000000000000      0.500000000000      0.366478000000
       0.500000000000      0.000000000000      0.499215000000
       0.000000000000      0.500000000000      0.635092000000
       0.500000000000      0.000000000000      0.767830000000
       0.000000000000      0.500000000000      0.232170000000
       0.500000000000      0.000000000000      0.364908000000
       0.000000000000      0.500000000000      0.500785000000
       0.500000000000      0.000000000000      0.633522000000
       0.000000000000      0.500000000000      0.769400000000
 rms dE/dt=  2.4567E-01; max dE/dt=  5.7147E-01; dE/dt below (all hartree)
    1       0.000000000000      0.000000000000      0.518425828811
    2       0.000000000000      0.000000000000      0.466059998216
    3       0.000000000000      0.000000000000     -0.032497191766
    4       0.000000000000      0.000000000000     -0.375503805197
    5       0.000000000000      0.000000000000     -0.560843084774
    6       0.000000000000      0.000000000000      0.571471686796
    7       0.000000000000      0.000000000000      0.296850998479
    8       0.000000000000      0.000000000000      0.051759713441
    9       0.000000000000      0.000000000000     -0.428803086746
   10       0.000000000000      0.000000000000     -0.516437276526

 cartesian coordinates (angstrom) at end:
    1      2.05385096425820     0.00000000000000     4.66647818975039
    2      0.00000000000000     2.05385096425820     7.41610658246644
    3      2.05385096425820     0.00000000000000    10.10219344016827
    4      0.00000000000000     2.05385096425820    12.85182183288432
    5      2.05385096425820     0.00000000000000    15.53792892674379
    6      0.00000000000000     2.05385096425820     4.69822872109986
    7      2.05385096425820     0.00000000000000     7.38433581495933
    8      0.00000000000000     2.05385096425820    10.13396420767538
    9      2.05385096425820     0.00000000000000    12.82005106537721
   10      0.00000000000000     2.05385096425820    15.56969969425090

 cartesian forces (hartree/bohr) at end:
    1     -0.00000000000000    -0.00000000000000    -0.01358176361189
    2     -0.00000000000000    -0.00000000000000    -0.01221239277866
    3     -0.00000000000000    -0.00000000000000     0.00082491927972
    4     -0.00000000000000    -0.00000000000000     0.00979457080062
    5     -0.00000000000000    -0.00000000000000     0.01464120840423
    6     -0.00000000000000    -0.00000000000000    -0.01496891721803
    7     -0.00000000000000    -0.00000000000000    -0.00778756333686
    8     -0.00000000000000    -0.00000000000000    -0.00137840581183
    9     -0.00000000000000    -0.00000000000000     0.01118835145409
   10     -0.00000000000000    -0.00000000000000     0.01347999281861
 frms,max,avg= 6.4241471E-03 1.4968917E-02   0.000E+00  0.000E+00  2.488E-05 h/b

 cartesian forces (eV/Angstrom) at end:
    1     -0.00000000000000    -0.00000000000000    -0.69840230671272
    2     -0.00000000000000    -0.00000000000000    -0.62798643319227
    3     -0.00000000000000    -0.00000000000000     0.04241905133000
    4     -0.00000000000000    -0.00000000000000     0.50365703865018
    5     -0.00000000000000    -0.00000000000000     0.75288114377289
    6     -0.00000000000000    -0.00000000000000    -0.76973260710463
    7     -0.00000000000000    -0.00000000000000    -0.40045257402142
    8     -0.00000000000000    -0.00000000000000    -0.07088047076067
    9     -0.00000000000000    -0.00000000000000     0.57532811548912
   10     -0.00000000000000    -0.00000000000000     0.69316904254953
 frms,max,avg= 3.3034290E-01 7.6973261E-01   0.000E+00  0.000E+00  1.280E-03 e/A
 length scales=  7.762431680422  7.762431680422  7.762431680422 bohr
              =  4.107701928516  4.107701928516  4.107701928516 angstroms
 prteigrs : about to open file Cs2TiI6o_EIG
 Fermi (or HOMO) energy (hartree) =   0.12509   Average Vxc (hartree)=  -0.29504
 Eigenvalues (hartree) for nkpt=  10  k points:
 kpt#   1, nband= 77, wtk=  0.06250, kpt=  0.0625  0.0625  0.5000 (reduced coord)
  -1.69857   -1.69836   -1.69787   -1.69657   -1.69541   -1.69534   -1.69435   -1.69338
  -1.69299   -1.69251   -1.69121   -1.69019   -1.68875   -1.68634   -1.68499   -1.67218
  -1.67151   -1.67125   -1.67056   -1.66956   -1.66850   -1.66847   -1.66647   -1.66635
  -1.66540   -0.69476   -0.69285   -0.69275   -0.69210   -0.69198   -0.68570   -0.68526
  -0.68387   -0.68351   -0.68345   -0.68337   -0.68329   -0.68327   -0.68318   -0.68303
  -0.68301   -0.68279   -0.68277   -0.68252   -0.68251   -0.68246   -0.68139   -0.68124
  -0.68103   -0.68074   -0.44373   -0.42769   -0.40463   -0.38092   -0.37416   -0.15873
  -0.15547   -0.12713   -0.11758   -0.08527   -0.07651   -0.05606   -0.04193   -0.03736
  -0.02109   -0.01794   -0.01400    0.00211    0.00933    0.01587    0.01880    0.03533
   0.03748    0.06016    0.08997    0.17699    0.19997
 prteigrs : prtvol=0 or 1, do not print more k-points.

--- !EnergyTerms
iteration_state     : {dtset: 1, }
comment             : Components of total free energy in Hartree
kinetic             :  6.07889767197514E+02
hartree             :  1.08446021339315E+03
xc                  : -2.29325770361335E+02
Ewald energy        :  2.76339246573746E+02
psp_core            :  2.02407012489299E+01
local_psp           : -2.39571495476935E+03
non_local_psp       : -3.58454235376821E+02
VdWaals_dft_d       : -1.31087713501049E-01
total_energy        : -9.94696119807675E+02
...

--- !EnergyTermsDC
iteration_state     : {dtset: 1, }
comment             : '"Double-counting" decomposition of free energy'
band_energy         : -1.23796857767120E+02
Ewald energy        :  2.76339246573746E+02
psp_core            :  2.02407012489299E+01
xc_dc               : -1.16734813337927E+03
VdWaals_dft_d       : -1.31087713501049E-01
total_energy_dc     : -9.94696131037215E+02
...

 Cartesian components of stress tensor (hartree/bohr^3)
  sigma(1 1)=  1.24265065E-02  sigma(3 2)=  0.00000000E+00
  sigma(2 2)=  1.24265065E-02  sigma(3 1)=  0.00000000E+00
  sigma(3 3)=  1.22121556E-02  sigma(2 1)=  0.00000000E+00

-Cartesian components of stress tensor (GPa)         [Pressure= -3.6350E+02 GPa]
- sigma(1 1)=  3.65600383E+02  sigma(3 2)=  0.00000000E+00
- sigma(2 2)=  3.65600383E+02  sigma(3 1)=  0.00000000E+00
- sigma(3 3)=  3.59293963E+02  sigma(2 1)=  0.00000000E+00

== END DATASET(S) ==============================================================

 -outvars: echo values of variables after computation  --------
            acell      7.7624316804E+00  7.7624316804E+00  7.7624316804E+00 Bohr
              amu      1.18710000E+02  7.89600000E+01
           diemac      1.20000000E+01
             ecut      2.25000000E+01 Hartree
           etotal     -9.9469613104E+02
            fcart     -0.0000000000E+00 -0.0000000000E+00 -1.3581763612E-02
                      -0.0000000000E+00 -0.0000000000E+00 -1.2212392779E-02
                      -0.0000000000E+00 -0.0000000000E+00  8.2491927972E-04
                      -0.0000000000E+00 -0.0000000000E+00  9.7945708006E-03
                      -0.0000000000E+00 -0.0000000000E+00  1.4641208404E-02
                      -0.0000000000E+00 -0.0000000000E+00 -1.4968917218E-02
                      -0.0000000000E+00 -0.0000000000E+00 -7.7875633369E-03
                      -0.0000000000E+00 -0.0000000000E+00 -1.3784058118E-03
                      -0.0000000000E+00 -0.0000000000E+00  1.1188351454E-02
                      -0.0000000000E+00 -0.0000000000E+00  1.3479992819E-02
-          fftalg         112
             iscf          17
              ixc          11
              kpt      6.25000000E-02  6.25000000E-02  5.00000000E-01
                       1.87500000E-01  6.25000000E-02  5.00000000E-01
                       3.12500000E-01  6.25000000E-02  5.00000000E-01
                       4.37500000E-01  6.25000000E-02  5.00000000E-01
                       1.87500000E-01  1.87500000E-01  5.00000000E-01
                       3.12500000E-01  1.87500000E-01  5.00000000E-01
                       4.37500000E-01  1.87500000E-01  5.00000000E-01
                       3.12500000E-01  3.12500000E-01  5.00000000E-01
                       4.37500000E-01  3.12500000E-01  5.00000000E-01
                       4.37500000E-01  4.37500000E-01  5.00000000E-01
         kptrlatt        8    0    0      0    8    0      0    0    1
          kptrlen      6.20994534E+01
P           mkmem           3
            natom          10
            nband          77
            ngfft          36      36     180
             nkpt          10
            nstep         150
             nsym           8
           ntypat           2
              occ      2.000000  2.000000  2.000000  2.000000  2.000000  2.000000
                       2.000000  2.000000  2.000000  2.000000  2.000000  2.000000
                       2.000000  2.000000  2.000000  2.000000  2.000000  2.000000
                       2.000000  2.000000  2.000000  2.000000  2.000000  2.000000
                       2.000000  2.000000  2.000000  2.000000  2.000000  2.000000
                       2.000000  2.000000  2.000000  2.000000  2.000000  2.000000
                       2.000000  2.000000  2.000000  2.000000  2.000000  2.000000
                       2.000000  2.000000  2.000000  2.000000  2.000000  2.000000
                       2.000000  2.000000  2.000000  2.000000  2.000000  2.000000
                       2.000000  2.000000  2.000000  2.000000  2.000000  2.000000
                       2.000000  2.000000  2.000000  2.000000  2.000000  2.000000
                       2.000000  2.000000  2.000000  2.000000  2.000000  2.000000
                       2.000000  2.000000  2.000000  0.000000  0.000000
           prtcif           1
            rprim      1.0000000000E+00  0.0000000000E+00  0.0000000000E+00
                       0.0000000000E+00  1.0000000000E+00  0.0000000000E+00
                       0.0000000000E+00  0.0000000000E+00  4.9263938815E+00
           shiftk      5.00000000E-01  5.00000000E-01  5.00000000E-01
          spgroup          99
           strten      1.2426506521E-02  1.2426506521E-02  1.2212155644E-02
                       0.0000000000E+00  0.0000000000E+00  0.0000000000E+00
           symrel      1  0  0   0  1  0   0  0  1       1  0  0   0 -1  0   0  0  1
                      -1  0  0   0 -1  0   0  0  1      -1  0  0   0  1  0   0  0  1
                       0  1  0   1  0  0   0  0  1       0  1  0  -1  0  0   0  0  1
                       0 -1  0  -1  0  0   0  0  1       0 -1  0   1  0  0   0  0  1
            tnons      0.0000000  0.0000000  0.0000000     0.0000000  0.0000000  0.0000000
                       0.0000000  0.0000000  0.0000000     0.0000000  0.0000000  0.0000000
                       0.5000000  0.5000000  0.0000000     0.5000000  0.5000000  0.0000000
                       0.5000000  0.5000000  0.0000000     0.5000000  0.5000000  0.0000000
           toldfe      1.00000000E-06 Hartree
            typat      1  1  1  1  1  2  2  2  2  2
           vdw_xc           5
              wtk        0.06250    0.12500    0.12500    0.12500    0.06250    0.12500
                         0.12500    0.06250    0.12500    0.06250
           xangst      2.0538509643E+00  0.0000000000E+00  4.6664781898E+00
                       0.0000000000E+00  2.0538509643E+00  7.4161065825E+00
                       2.0538509643E+00  0.0000000000E+00  1.0102193440E+01
                       0.0000000000E+00  2.0538509643E+00  1.2851821833E+01
                       2.0538509643E+00  0.0000000000E+00  1.5537928927E+01
                       0.0000000000E+00  2.0538509643E+00  4.6982287211E+00
                       2.0538509643E+00  0.0000000000E+00  7.3843358150E+00
                       0.0000000000E+00  2.0538509643E+00  1.0133964208E+01
                       2.0538509643E+00  0.0000000000E+00  1.2820051065E+01
                       0.0000000000E+00  2.0538509643E+00  1.5569699694E+01
            xcart      3.8812158402E+00  0.0000000000E+00  8.8183657837E+00
                       0.0000000000E+00  3.8812158402E+00  1.4014410413E+01
                       3.8812158402E+00  0.0000000000E+00  1.9090378943E+01
                       0.0000000000E+00  3.8812158402E+00  2.4286423573E+01
                       3.8812158402E+00  0.0000000000E+00  2.9362430344E+01
                       0.0000000000E+00  3.8812158402E+00  8.8783655925E+00
                       3.8812158402E+00  0.0000000000E+00  1.3954372364E+01
                       0.0000000000E+00  3.8812158402E+00  1.9150416993E+01
                       3.8812158402E+00  0.0000000000E+00  2.4226385523E+01
                       0.0000000000E+00  3.8812158402E+00  2.9422468393E+01
             xred      5.0000000000E-01  0.0000000000E+00  2.3060100000E-01
                       0.0000000000E+00  5.0000000000E-01  3.6647800000E-01
                       5.0000000000E-01  0.0000000000E+00  4.9921500000E-01
                       0.0000000000E+00  5.0000000000E-01  6.3509200000E-01
                       5.0000000000E-01  0.0000000000E+00  7.6783000000E-01
                       0.0000000000E+00  5.0000000000E-01  2.3217000000E-01
                       5.0000000000E-01  0.0000000000E+00  3.6490800000E-01
                       0.0000000000E+00  5.0000000000E-01  5.0078500000E-01
                       5.0000000000E-01  0.0000000000E+00  6.3352200000E-01
                       0.0000000000E+00  5.0000000000E-01  7.6940000000E-01
            znucl       50.00000   34.00000

- Timing analysis has been suppressed with timopt=0

 Suggested references for the acknowledgment of ABINIT usage.

 Calculation completed.
.Delivered   0 WARNINGs and   0 COMMENTs to log file.