.Version 9.2.2 of ABINIT

 ABINIT is a project of the Universite Catholique de Louvain,
 Corning Inc. and other collaborators, see ~abinit/doc/developers/contributors.txt .
 acknowledgments of the ABINIT effort.

.Starting date : Sat 24 Feb 2024.
- ( at 21h42 )

- The starting date is more than 3 years after the initial release
- of this version of ABINIT, namely Nov 2020.
- This version of ABINIT is not supported anymore.
- Action: please, switch to a more recent version of ABINIT.

 === Build Information ===
  Version       : 9.2.2
  Build target  : x86_64_linux_gnu9.3
  Build date    : 20210501

 === Optimizations ===
  Debug level        : basic
  Optimization level : standard
  Architecture       : unknown_unknown

 === Multicore ===
  Parallel build : yes
  Parallel I/O   : yes
  openMP support :
  GPU support    :

 === Connectors / Fallbacks ===
  LINALG flavor  : netlib
  FFT flavor     : goedecker
  HDF5           : yes
  NetCDF         : yes
  NetCDF Fortran : yes
  Wannier90      : no

 === Experimental features ===
  Exports             :
  GW double-precision :

 Default optimizations:
   -O2 -mtune=native -march=native

 Optimizations for 43_ptgroups:
   -O0

 CPP options activated during the build:

                    CC_GNU                    FC_GNU HAVE_FC_ALLOCATABLE_DT...

             HAVE_FC_ASYNC         HAVE_FC_BACKTRACE  HAVE_FC_COMMAND_ARGUMENT

      HAVE_FC_COMMAND_LINE        HAVE_FC_CONTIGUOUS           HAVE_FC_CPUTIME

              HAVE_FC_EXIT             HAVE_FC_FLUSH             HAVE_FC_GAMMA

            HAVE_FC_GETENV   HAVE_FC_IEEE_ARITHMETIC   HAVE_FC_IEEE_EXCEPTIONS

          HAVE_FC_INT_QUAD             HAVE_FC_IOMSG     HAVE_FC_ISO_C_BINDING

  HAVE_FC_ISO_FORTRAN_2008        HAVE_FC_LONG_LINES        HAVE_FC_MOVE_ALLOC

  HAVE_FC_ON_THE_FLY_SHAPE           HAVE_FC_PRIVATE         HAVE_FC_PROTECTED

           HAVE_FC_SHIFTLR         HAVE_FC_STREAM_IO            HAVE_FC_SYSTEM

          HAVE_FORTRAN2003                 HAVE_HDF5        HAVE_LIBPAW_ABINIT

                 HAVE_MPI2       HAVE_MPI_IALLGATHER       HAVE_MPI_IALLREDUCE

        HAVE_MPI_IALLTOALL       HAVE_MPI_IALLTOALLV           HAVE_MPI_IBCAST

         HAVE_MPI_IGATHERV        HAVE_MPI_INTEGER16               HAVE_MPI_IO

 HAVE_MPI_TYPE_CREATE_S...               HAVE_NETCDF       HAVE_NETCDF_FORTRAN

             HAVE_OS_LINUX         HAVE_TIMER_ABINIT

- input  file    -> Cs2TiI6.in
- output file    -> Cs2TiI6.out
- root for input  files -> Cs2TiI6i
- root for output files -> Cs2TiI6o

-instrng: 42 lines of input have been read from file Cs2TiI6.in

 Please give name of formatted atomic psp file (and finish with a newline character)
 For atom type 1, psp file is ../../../Psps_for_tests/ATOMICDATA_NC/Sn.psp8

 Please give name of formatted atomic psp file (and finish with a newline character)
 For atom type 2, psp file is ../../../Psps_for_tests/ATOMICDATA_NC/Se.psp8
  read the values zionpsp= 14.0 , pspcod=   8 , lmax=   2
  read the values zionpsp= 16.0 , pspcod=   8 , lmax=   2

 inpspheads: deduce mpsang = 3, n1xccc = 2501.

 invars1m : enter jdtset= 0

 symlatt: the Bravais lattice is tP (primitive tetragonal)
  xred   is defined in input file
 ingeo: takes atomic coordinates from input array xred

--- !WARNING
src_file: m_ingeo.F90
src_line: 887
message: |
    The tolerance on symmetries =   1.000E-05 is bigger than 1.0e-8.
    In order to avoid spurious effects, the atomic coordinates have been
    symmetrized before storing them in the dataset internal variable.
    So, do not be surprised by the fact that your input variables (xcart, xred, ...)
    do not correspond to the ones echoed by ABINIT, the latter being used to do the calculations.
    In order to avoid this symmetrization (e.g. for specific debugging/development), decrease tolsym to 1.0e-8 or lower.
...

 symlatt: the Bravais lattice is tP (primitive tetragonal)

 symlatt: the Bravais lattice is tP (primitive tetragonal)
 symspgr: spgroup= 129  P4/n m m   (=D4h^7)
 symspgr: optical characteristics = uniaxial
 Optical axis (in reduced coordinates, real space ) :   0   0   1
 invars2: take the default value of fband=  1.25000000E-01

--- !WARNING
src_file: m_mpinfo.F90
src_line: 2281
message: |
    nkpt*nsppol (10) is not a multiple of nproc_kpt (6)
    The k-point parallelisation is inefficient. (Ignore this warning if this is not a GS run)
...

 For input ecut=  2.250000E+01 best grid ngfft=      36      36     144
       max ecut=  2.334283E+01

 ==== FFT mesh ====
  FFT mesh divisions ........................    36   36  144
  Augmented FFT divisions ...................    37   37  144
  FFT algorithm .............................   112
  FFT cache size ............................    16
 getmpw: optimal value of mpw= 10196

 Symmetries : space group P4/n m m (#129); Bravais tP (primitive tetrag.)

 getdim_nloc : deduce lmnmax  =  18, lnmax  =   6,
                      lmnmaxso=  18, lnmaxso=   6.
     intxc =       0    ionmov =       0      iscf =      17    lmnmax =       6
     lnmax =       6     mgfft =     144  mpssoang =       3    mqgrid =    7069
     natom =       8  nloc_mem =       1    nspden =       1   nspinor =       1
    nsppol =       1      nsym =      16    n1xccc =    2501    ntypat =       2
    occopt =       1   xclevel =       2
-    mband =          61        mffmem =           1         mkmem =           2
       mpw =       10196          nfft =      186624          nkpt =          10
  Rough estimation (10% accuracy) of disk space for files :

 The job will continue.
------------- Echo of variables that govern the present computation ------------
-
- outvars: echo of selected default values
-   iomode0 =  0 , fftalg0 =112 , wfoptalg0 =  0
-
- outvars: echo of global parameters not present in the input file
-  max_nthreads =    0
-
 -outvars: echo values of preprocessed input variables --------

 These variables are accessible in NetCDF format (Cs2TiI6o_OUT.nc)

            acell      7.7624316804E+00  7.7624316804E+00  7.7624316804E+00 Bohr
              amu      1.18710000E+02  7.89600000E+01
           diemac      1.20000000E+01
             ecut      2.25000000E+01 Hartree
-          fftalg         112
             iscf          17
              ixc          11
              kpt      6.25000000E-02  6.25000000E-02  5.00000000E-01
                       1.87500000E-01  6.25000000E-02  5.00000000E-01
                       3.12500000E-01  6.25000000E-02  5.00000000E-01
                       4.37500000E-01  6.25000000E-02  5.00000000E-01
                       1.87500000E-01  1.87500000E-01  5.00000000E-01
                       3.12500000E-01  1.87500000E-01  5.00000000E-01
                       4.37500000E-01  1.87500000E-01  5.00000000E-01
                       3.12500000E-01  3.12500000E-01  5.00000000E-01
                       4.37500000E-01  3.12500000E-01  5.00000000E-01
                       4.37500000E-01  4.37500000E-01  5.00000000E-01
         kptrlatt        8    0    0      0    8    0      0    0    1
          kptrlen      6.20994534E+01
P           mkmem           2
            natom           8
            nband          61
            ngfft          36      36     144
             nkpt          10
            nstep         150
             nsym          16
           ntypat           2
              occ      2.000000  2.000000  2.000000  2.000000  2.000000  2.000000
                       2.000000  2.000000  2.000000  2.000000  2.000000  2.000000
                       2.000000  2.000000  2.000000  2.000000  2.000000  2.000000
                       2.000000  2.000000  2.000000  2.000000  2.000000  2.000000
                       2.000000  2.000000  2.000000  2.000000  2.000000  2.000000
                       2.000000  2.000000  2.000000  2.000000  2.000000  2.000000
                       2.000000  2.000000  2.000000  2.000000  2.000000  2.000000
                       2.000000  2.000000  2.000000  2.000000  2.000000  2.000000
                       2.000000  2.000000  2.000000  2.000000  2.000000  2.000000
                       2.000000  2.000000  2.000000  2.000000  2.000000  2.000000
                       0.000000
           prtcif           1
            rprim      1.0000000000E+00  0.0000000000E+00  0.0000000000E+00
                       0.0000000000E+00  1.0000000000E+00  0.0000000000E+00
                       0.0000000000E+00  0.0000000000E+00  4.2647429147E+00
           shiftk      5.00000000E-01  5.00000000E-01  5.00000000E-01
          spgroup         129
           symrel      1  0  0   0  1  0   0  0  1      -1  0  0   0 -1  0   0  0 -1
                      -1  0  0   0  1  0   0  0 -1       1  0  0   0 -1  0   0  0  1
                      -1  0  0   0 -1  0   0  0  1       1  0  0   0  1  0   0  0 -1
                       1  0  0   0 -1  0   0  0 -1      -1  0  0   0  1  0   0  0  1
                       0  1  0   1  0  0   0  0  1       0 -1  0  -1  0  0   0  0 -1
                       0 -1  0   1  0  0   0  0 -1       0  1  0  -1  0  0   0  0  1
                       0 -1  0  -1  0  0   0  0  1       0  1  0   1  0  0   0  0 -1
                       0  1  0  -1  0  0   0  0 -1       0 -1  0   1  0  0   0  0  1
            tnons      0.0000000  0.0000000  0.0000000     0.5000000  0.5000000  0.0000000
                       0.5000000  0.5000000  0.0000000     0.0000000  0.0000000  0.0000000
                      -0.0000000  0.0000000  0.0000000     0.5000000  0.5000000  0.0000000
                       0.5000000  0.5000000  0.0000000    -0.0000000  0.0000000  0.0000000
                       0.5000000  0.5000000  0.0000000     0.0000000 -0.0000000  0.0000000
                       0.0000000 -0.0000000  0.0000000     0.5000000  0.5000000  0.0000000
                       0.5000000  0.5000000  0.0000000     0.0000000  0.0000000  0.0000000
                       0.0000000  0.0000000  0.0000000     0.5000000  0.5000000  0.0000000
           toldfe      1.00000000E-06 Hartree
            typat      1  1  1  1  2  2  2  2
           vdw_xc           5
              wtk        0.06250    0.12500    0.12500    0.12500    0.06250    0.12500
                         0.12500    0.06250    0.12500    0.06250
           xangst      2.0538509643E+00  0.0000000000E+00  4.6664702533E+00
                       0.0000000000E+00  2.0538509643E+00  7.4160889198E+00
                       2.0538509643E+00  0.0000000000E+00  1.0102203775E+01
                       0.0000000000E+00  2.0538509643E+00  1.2851822442E+01
                       0.0000000000E+00  2.0538509643E+00  4.6982309179E+00
                       2.0538509643E+00  0.0000000000E+00  7.3843282551E+00
                       0.0000000000E+00  2.0538509643E+00  1.0133964440E+01
                       2.0538509643E+00  0.0000000000E+00  1.2820061777E+01
            xcart      3.8812158402E+00  0.0000000000E+00  8.8183507859E+00
                       0.0000000000E+00  3.8812158402E+00  1.4014377036E+01
                       3.8812158402E+00  0.0000000000E+00  1.9090398474E+01
                       0.0000000000E+00  3.8812158402E+00  2.4286424724E+01
[...]
   5.01E-13  2.00E-13  4.55E-13  5.54E-13  2.40E-13  4.56E-14  4.37E-13  1.01E-13
   5.39E-13  4.64E-13  1.16E-13  1.29E-13  2.79E-13  2.47E-13  3.15E-14  5.12E-14
   4.63E-13  3.89E-13  1.12E-12  1.42E-12  2.68E-12  3.08E-12  3.31E-12  2.74E-12
   2.83E-12  2.90E-12  4.28E-12  4.41E-12  2.92E-12  3.74E-12  4.31E-12  4.27E-12
   4.62E-12  3.74E-12  5.10E-12  6.02E-12  1.15E-06

   outwf: writing wavefunctions to: Cs2TiI6o_WFK with iomode: IO_MODE_FORTRAN_MASTER
 prteigrs : about to open file Cs2TiI6o_EIG
 Fermi (or HOMO) energy (hartree) =   0.09452   Average Vxc (hartree)=  -0.27839
 Eigenvalues (hartree) for nkpt=  10  k points:
 kpt#   1, nband= 61, wtk=  0.06250, kpt=  0.0625  0.0625  0.5000 (reduced coord)
  -1.71811   -1.71667   -1.71649   -1.71499   -1.71304   -1.71297   -1.71126   -1.70988
  -1.70847   -1.70812   -1.69310   -1.69276   -1.69246   -1.69217   -1.68969   -1.68872
  -1.68841   -1.68818   -1.68644   -1.68620   -0.70818   -0.70689   -0.70634   -0.70613
  -0.70581   -0.70557   -0.70518   -0.70510   -0.70497   -0.70478   -0.70469   -0.70434
  -0.70388   -0.70387   -0.70386   -0.70353   -0.70352   -0.70344   -0.70297   -0.70290
  -0.45971   -0.43628   -0.40489   -0.39340   -0.17579   -0.16411   -0.13374   -0.11115
  -0.08897   -0.07167   -0.05538   -0.04629   -0.03011   -0.01661   -0.01600   -0.00329
  -0.00109    0.01676    0.02771    0.07095    0.14597
 kpt#   2, nband= 61, wtk=  0.12500, kpt=  0.1875  0.0625  0.5000 (reduced coord)
  -1.71620   -1.71408   -1.71400   -1.71317   -1.71226   -1.71173   -1.71087   -1.70960
  -1.70862   -1.70836   -1.69298   -1.69158   -1.69154   -1.69092   -1.68959   -1.68919
  -1.68863   -1.68775   -1.68724   -1.68605   -0.70728   -0.70621   -0.70597   -0.70592
  -0.70564   -0.70552   -0.70490   -0.70489   -0.70463   -0.70457   -0.70457   -0.70452
  -0.70394   -0.70377   -0.70372   -0.70359   -0.70357   -0.70350   -0.70341   -0.70334
  -0.45357   -0.43150   -0.40182   -0.39329   -0.19099   -0.18355   -0.15646   -0.12796
  -0.09963   -0.07017   -0.04491   -0.03724   -0.01677   -0.00722   -0.00312    0.00072
   0.00350    0.04595    0.04658    0.08068    0.13746
 kpt#   3, nband= 61, wtk=  0.12500, kpt=  0.3125  0.0625  0.5000 (reduced coord)
  -1.71468   -1.71349   -1.71315   -1.71253   -1.71135   -1.70848   -1.70835   -1.70811
  -1.70794   -1.70545   -1.69165   -1.69012   -1.68926   -1.68914   -1.68813   -1.68773
  -1.68703   -1.68636   -1.68589   -1.68462   -0.70672   -0.70620   -0.70572   -0.70535
  -0.70520   -0.70517   -0.70482   -0.70466   -0.70461   -0.70450   -0.70445   -0.70418
  -0.70382   -0.70351   -0.70351   -0.70332   -0.70318   -0.70317   -0.70310   -0.70288
  -0.44244   -0.42419   -0.39778   -0.39469   -0.21144   -0.20512   -0.18290   -0.15986
  -0.09049   -0.05419   -0.03017   -0.02519   -0.01998    0.00039    0.00640    0.01161
   0.03333    0.06692    0.07230    0.09188    0.13305
 kpt#   4, nband= 61, wtk=  0.12500, kpt=  0.4375  0.0625  0.5000 (reduced coord)
  -1.71484   -1.71421   -1.71395   -1.71353   -1.71199   -1.71118   -1.71104   -1.71096
  -1.70689   -1.70671   -1.69228   -1.69197   -1.69100   -1.69003   -1.68925   -1.68850
  -1.68835   -1.68744   -1.68643   -1.68571   -0.70654   -0.70629   -0.70595   -0.70581
  -0.70538   -0.70522   -0.70501   -0.70497   -0.70484   -0.70476   -0.70440   -0.70427
  -0.70386   -0.70383   -0.70373   -0.70363   -0.70334   -0.70327   -0.70320   -0.70307
  -0.42937   -0.42114   -0.39673   -0.39617   -0.22300   -0.21944   -0.19528   -0.18551
  -0.07120   -0.04729   -0.02977   -0.01170   -0.00411   -0.00189    0.01002    0.01629
   0.06464    0.07665    0.08452    0.09071    0.11673
 kpt#   5, nband= 61, wtk=  0.06250, kpt=  0.1875  0.1875  0.5000 (reduced coord)
  -1.71468   -1.71368   -1.71336   -1.71101   -1.71078   -1.70945   -1.70870   -1.70814
  -1.70622   -1.70496   -1.69060   -1.69044   -1.68958   -1.68904   -1.68863   -1.68739
  -1.68678   -1.68555   -1.68544   -1.68342   -0.70719   -0.70606   -0.70546   -0.70545
  -0.70534   -0.70513   -0.70466   -0.70458   -0.70454   -0.70451   -0.70434   -0.70422
  -0.70352   -0.70341   -0.70335   -0.70322   -0.70320   -0.70319   -0.70308   -0.70304
  -0.44759   -0.42695   -0.39870   -0.39254   -0.19616   -0.18809   -0.16357   -0.13785
  -0.09663   -0.09381   -0.07027   -0.03818   -0.02252   -0.01992   -0.00977    0.01362
   0.03836    0.06283    0.07199    0.09452    0.13388
 kpt#   6, nband= 61, wtk=  0.12500, kpt=  0.3125  0.1875  0.5000 (reduced coord)
  -1.71602   -1.71476   -1.71398   -1.71286   -1.71101   -1.71033   -1.70918   -1.70861
  -1.70850   -1.70770   -1.69206   -1.69155   -1.68986   -1.68982   -1.68922   -1.68783
  -1.68779   -1.68756   -1.68741   -1.68613   -0.70692   -0.70637   -0.70607   -0.70584
  -0.70513   -0.70505   -0.70492   -0.70479   -0.70463   -0.70462   -0.70450   -0.70420
  -0.70405   -0.70400   -0.70365   -0.70365   -0.70341   -0.70341   -0.70308   -0.70294
  -0.43696   -0.42020   -0.39449   -0.39247   -0.20682   -0.19977   -0.17768   -0.15820
  -0.09730   -0.08513   -0.06979   -0.04187   -0.02538   -0.02419   -0.01170    0.00420
   0.04895    0.05512    0.06589    0.09053    0.12693
 kpt#   7, nband= 61, wtk=  0.12500, kpt=  0.4375  0.1875  0.5000 (reduced coord)
  -1.71666   -1.71432   -1.71420   -1.71320   -1.71196   -1.71155   -1.71076   -1.71018
  -1.70848   -1.70816   -1.69286   -1.69175   -1.69118   -1.69104   -1.68984   -1.68861
  -1.68788   -1.68769   -1.68703   -1.68601   -0.70699   -0.70656   -0.70606   -0.70597
  -0.70522   -0.70522   -0.70510   -0.70499   -0.70477   -0.70473   -0.70469   -0.70433
  -0.70411   -0.70410   -0.70370   -0.70359   -0.70331   -0.70328   -0.70313   -0.70311
  -0.42490   -0.41761   -0.39293   -0.39244   -0.21453   -0.21132   -0.18600   -0.17810
  -0.07659   -0.07039   -0.05166   -0.04862   -0.04299   -0.03341   -0.00941   -0.00116
   0.03193    0.04035    0.05537    0.06517    0.14025
 kpt#   8, nband= 61, wtk=  0.06250, kpt=  0.3125  0.3125  0.5000 (reduced coord)
  -1.71657   -1.71601   -1.71565   -1.71413   -1.71048   -1.71039   -1.71006   -1.70983
  -1.70921   -1.70818   -1.69316   -1.69210   -1.69155   -1.69126   -1.69080   -1.68945
  -1.68818   -1.68756   -1.68680   -1.68650   -0.70698   -0.70683   -0.70602   -0.70597
  -0.70522   -0.70506   -0.70500   -0.70496   -0.70472   -0.70469   -0.70459   -0.70456
  -0.70450   -0.70449   -0.70387   -0.70375   -0.70362   -0.70359   -0.70285   -0.70283
  -0.42759   -0.41465   -0.38982   -0.38946   -0.20137   -0.19508   -0.16975   -0.15958
  -0.12412   -0.09706   -0.07101   -0.06365   -0.04273   -0.04222   -0.03721   -0.01549
   0.01367    0.02758    0.04536    0.06868    0.14517
 kpt#   9, nband= 61, wtk=  0.12500, kpt=  0.4375  0.3125  0.5000 (reduced coord)
  -1.71726   -1.71505   -1.71404   -1.71337   -1.71247   -1.71087   -1.71055   -1.70979
  -1.70939   -1.70925   -1.69286   -1.69187   -1.69098   -1.69037   -1.68959   -1.68953
  -1.68895   -1.68824   -1.68794   -1.68762   -0.70748   -0.70712   -0.70610   -0.70606
  -0.70520   -0.70506   -0.70496   -0.70491   -0.70481   -0.70479   -0.70465   -0.70438
  -0.70431   -0.70423   -0.70383   -0.70374   -0.70367   -0.70354   -0.70296   -0.70288
  -0.41779   -0.41257   -0.38719   -0.38685   -0.19909   -0.19671   -0.16791   -0.16542
  -0.11639   -0.09539   -0.08224   -0.07213   -0.06114   -0.05865   -0.03686   -0.02984
  -0.01724   -0.00120    0.04112    0.05437    0.16225
 kpt#  10, nband= 61, wtk=  0.06250, kpt=  0.4375  0.4375  0.5000 (reduced coord)
  -1.71597   -1.71471   -1.71413   -1.71358   -1.71188   -1.71038   -1.71021   -1.70986
  -1.70979   -1.70910   -1.69265   -1.69042   -1.69020   -1.68988   -1.68925   -1.68913
  -1.68899   -1.68821   -1.68748   -1.68691   -0.70740   -0.70724   -0.70626   -0.70601
  -0.70513   -0.70502   -0.70500   -0.70495   -0.70487   -0.70463   -0.70453   -0.70448
  -0.70446   -0.70424   -0.70384   -0.70365   -0.70342   -0.70333   -0.70274   -0.70268
  -0.41149   -0.40955   -0.38280   -0.38268   -0.18298   -0.18200   -0.15281   -0.14327
  -0.14032   -0.11312   -0.11296   -0.10087   -0.07900   -0.06937   -0.05693   -0.04446
  -0.03710   -0.03142    0.04562    0.05081    0.17866
 Total charge density [el/Bohr^3]
      Maximum=    2.2101E+00  at reduced coord.    0.9444    0.5556    0.5903
 Next maximum=    2.2101E+00  at reduced coord.    0.0556    0.5556    0.5903
      Minimum=    7.6222E-06  at reduced coord.    0.0000    0.0000    0.0000
 Next minimum=    7.6222E-06  at reduced coord.    0.5000    0.5000    0.0000
   Integrated=    1.2000E+02

 Cartesian components of stress tensor (hartree/bohr^3)
  sigma(1 1)=  1.14755176E-02  sigma(3 2)=  0.00000000E+00
  sigma(2 2)=  1.14755176E-02  sigma(3 1)=  0.00000000E+00
  sigma(3 3)=  1.13490642E-02  sigma(2 1)=  0.00000000E+00

-Cartesian components of stress tensor (GPa)         [Pressure= -3.3638E+02 GPa]
- sigma(1 1)=  3.37621327E+02  sigma(3 2)=  0.00000000E+00
- sigma(2 2)=  3.37621327E+02  sigma(3 1)=  0.00000000E+00
- sigma(3 3)=  3.33900941E+02  sigma(2 1)=  0.00000000E+00

== END DATASET(S) ==============================================================

 -outvars: echo values of variables after computation  --------

 These variables are accessible in NetCDF format (Cs2TiI6o_OUT.nc)

            acell      7.7624316804E+00  7.7624316804E+00  7.7624316804E+00 Bohr
              amu      1.18710000E+02  7.89600000E+01
           diemac      1.20000000E+01
             ecut      2.25000000E+01 Hartree
           etotal     -7.9575319366E+02
            fcart     -4.4461150867E-32 -0.0000000000E+00 -1.1499245350E-02
                      -4.4461150867E-32 -0.0000000000E+00 -1.5347487728E-02
                       1.0797708068E-31 -0.0000000000E+00  1.5347487728E-02
                      -4.4461150867E-32 -0.0000000000E+00  1.1499245350E-02
                      -4.4461150867E-32 -0.0000000000E+00 -1.4884548922E-02
                      -4.4461150867E-32 -0.0000000000E+00 -1.3054790277E-02
                      -4.4461150867E-32 -0.0000000000E+00  1.3054790277E-02
                       1.5878982452E-31 -0.0000000000E+00  1.4884548922E-02
-          fftalg         112
             iscf          17
              ixc          11
              kpt      6.25000000E-02  6.25000000E-02  5.00000000E-01
                       1.87500000E-01  6.25000000E-02  5.00000000E-01
                       3.12500000E-01  6.25000000E-02  5.00000000E-01
                       4.37500000E-01  6.25000000E-02  5.00000000E-01
                       1.87500000E-01  1.87500000E-01  5.00000000E-01
                       3.12500000E-01  1.87500000E-01  5.00000000E-01
                       4.37500000E-01  1.87500000E-01  5.00000000E-01
                       3.12500000E-01  3.12500000E-01  5.00000000E-01
                       4.37500000E-01  3.12500000E-01  5.00000000E-01
                       4.37500000E-01  4.37500000E-01  5.00000000E-01
         kptrlatt        8    0    0      0    8    0      0    0    1
          kptrlen      6.20994534E+01
P           mkmem           2
            natom           8
            nband          61
            ngfft          36      36     144
             nkpt          10
            nstep         150
             nsym          16
           ntypat           2
              occ      2.000000  2.000000  2.000000  2.000000  2.000000  2.000000
                       2.000000  2.000000  2.000000  2.000000  2.000000  2.000000
                       2.000000  2.000000  2.000000  2.000000  2.000000  2.000000
                       2.000000  2.000000  2.000000  2.000000  2.000000  2.000000
                       2.000000  2.000000  2.000000  2.000000  2.000000  2.000000
                       2.000000  2.000000  2.000000  2.000000  2.000000  2.000000
                       2.000000  2.000000  2.000000  2.000000  2.000000  2.000000
                       2.000000  2.000000  2.000000  2.000000  2.000000  2.000000
                       2.000000  2.000000  2.000000  2.000000  2.000000  2.000000
                       2.000000  2.000000  2.000000  2.000000  2.000000  2.000000
                       0.000000
           prtcif           1
            rprim      1.0000000000E+00  0.0000000000E+00  0.0000000000E+00
                       0.0000000000E+00  1.0000000000E+00  0.0000000000E+00
                       0.0000000000E+00  0.0000000000E+00  4.2647429147E+00
           shiftk      5.00000000E-01  5.00000000E-01  5.00000000E-01
          spgroup         129
           strten      1.1475517578E-02  1.1475517578E-02  1.1349064231E-02
                       0.0000000000E+00  0.0000000000E+00  0.0000000000E+00
           symrel      1  0  0   0  1  0   0  0  1      -1  0  0   0 -1  0   0  0 -1
                      -1  0  0   0  1  0   0  0 -1       1  0  0   0 -1  0   0  0  1
                      -1  0  0   0 -1  0   0  0  1       1  0  0   0  1  0   0  0 -1
                       1  0  0   0 -1  0   0  0 -1      -1  0  0   0  1  0   0  0  1
                       0  1  0   1  0  0   0  0  1       0 -1  0  -1  0  0   0  0 -1
                       0 -1  0   1  0  0   0  0 -1       0  1  0  -1  0  0   0  0  1
                       0 -1  0  -1  0  0   0  0  1       0  1  0   1  0  0   0  0 -1
                       0  1  0  -1  0  0   0  0 -1       0 -1  0   1  0  0   0  0  1
            tnons      0.0000000  0.0000000  0.0000000     0.5000000  0.5000000  0.0000000
                       0.5000000  0.5000000  0.0000000     0.0000000  0.0000000  0.0000000
                      -0.0000000  0.0000000  0.0000000     0.5000000  0.5000000  0.0000000
                       0.5000000  0.5000000  0.0000000    -0.0000000  0.0000000  0.0000000
                       0.5000000  0.5000000  0.0000000     0.0000000 -0.0000000  0.0000000
                       0.0000000 -0.0000000  0.0000000     0.5000000  0.5000000  0.0000000
                       0.5000000  0.5000000  0.0000000     0.0000000  0.0000000  0.0000000
                       0.0000000  0.0000000  0.0000000     0.5000000  0.5000000  0.0000000
           toldfe      1.00000000E-06 Hartree
            typat      1  1  1  1  2  2  2  2
           vdw_xc           5
              wtk        0.06250    0.12500    0.12500    0.12500    0.06250    0.12500
                         0.12500    0.06250    0.12500    0.06250
           xangst      2.0538509643E+00  0.0000000000E+00  4.6664702533E+00
                       0.0000000000E+00  2.0538509643E+00  7.4160889198E+00
                       2.0538509643E+00  0.0000000000E+00  1.0102203775E+01
                       0.0000000000E+00  2.0538509643E+00  1.2851822442E+01
                       0.0000000000E+00  2.0538509643E+00  4.6982309179E+00
                       2.0538509643E+00  0.0000000000E+00  7.3843282551E+00
                       0.0000000000E+00  2.0538509643E+00  1.0133964440E+01
                       2.0538509643E+00  0.0000000000E+00  1.2820061777E+01
            xcart      3.8812158402E+00  0.0000000000E+00  8.8183507859E+00
                       0.0000000000E+00  3.8812158402E+00  1.4014377036E+01
                       3.8812158402E+00  0.0000000000E+00  1.9090398474E+01
                       0.0000000000E+00  3.8812158402E+00  2.4286424724E+01
                       0.0000000000E+00  3.8812158402E+00  8.8783697439E+00
                       3.8812158402E+00  0.0000000000E+00  1.3954358078E+01
                       0.0000000000E+00  3.8812158402E+00  1.9150417432E+01
                       3.8812158402E+00  0.0000000000E+00  2.4226405766E+01
             xred      5.0000000000E-01  0.0000000000E+00  2.6637700000E-01
                       0.0000000000E+00  5.0000000000E-01  4.2333400000E-01
                       5.0000000000E-01  0.0000000000E+00  5.7666600000E-01
                       0.0000000000E+00  5.0000000000E-01  7.3362300000E-01
                       0.0000000000E+00  5.0000000000E-01  2.6819000000E-01
                       5.0000000000E-01  0.0000000000E+00  4.2152100000E-01
                       0.0000000000E+00  5.0000000000E-01  5.7847900000E-01
                       5.0000000000E-01  0.0000000000E+00  7.3181000000E-01
            znucl       50.00000   34.00000

 Suggested references for the acknowledgment of ABINIT usage.

 Calculation completed.
.Delivered   0 WARNINGs and   0 COMMENTs to log file.

--- !FinalSummary
program: abinit
version: 9.2.2
start_datetime: Sat Feb 24 21:42:40 2024
end_datetime: Sat Feb 24 21:45:23 2024
overall_cpu_time:         974.4
overall_wall_time:         974.4
exit_requested_by_user: no
timelimit: 0
pseudos:
    Sn  : c918e999fc214fef37654f9ff7d5f03d
    Se  : f801923bd422df98a30264e8ccc86374
usepaw: 0
mpi_procs: 6
omp_threads: 1
num_warnings: 0
num_comments: 0
...