.Version 9.2.2 of ABINIT

 ABINIT is a project of the Universite Catholique de Louvain,
 Corning Inc. and other collaborators, see ~abinit/doc/developers/contributors.txt .
 acknowledgments of the ABINIT effort.

.Starting date : Sat 16 Mar 2024.
- ( at 15h20 )

- The starting date is more than 3 years after the initial release
- of this version of ABINIT, namely Nov 2020.
- This version of ABINIT is not supported anymore.
- Action: please, switch to a more recent version of ABINIT.
- input  file    -> Cs2TiI6.in
- output file    -> Cs2TiI6.out
- root for input  files -> Cs2TiI6i
- root for output files -> Cs2TiI6o

 Symmetries : space group P4 m m (# 99); Bravais tP (primitive tetrag.)
     intxc =       0    ionmov =       0      iscf =      17    lmnmax =       6
     lnmax =       6     mgfft =     128  mpssoang =       3    mqgrid =    6225
     natom =       6  nloc_mem =       1    nspden =       1   nspinor =       1
    nsppol =       1      nsym =       8    n1xccc =    2501    ntypat =       3
    occopt =       1   xclevel =       2
-    mband =          52        mffmem =           1         mkmem =           2
       mpw =        8978          nfft =      165888          nkpt =          10
  Rough estimation (10% accuracy) of disk space for files :

------------- Echo of variables that govern the present computation ------------
-
- outvars: echo of selected default values
-   iomode0 =  0 , fftalg0 =112 , wfoptalg0 =  0
-
- outvars: echo of global parameters not present in the input file
-  max_nthreads =    0
-
 -outvars: echo values of preprocessed input variables --------
            acell      7.7624316804E+00  7.7624316804E+00  7.7624316804E+00 Bohr
              amu      1.18710000E+02  7.89600000E+01  6.53900000E+01
           diemac      1.20000000E+01
             ecut      2.25000000E+01 Hartree
-          fftalg         112
             iscf          17
              ixc          11
              kpt      6.25000000E-02  6.25000000E-02  2.50000000E-01
                       1.87500000E-01  6.25000000E-02  2.50000000E-01
                       3.12500000E-01  6.25000000E-02  2.50000000E-01
                       4.37500000E-01  6.25000000E-02  2.50000000E-01
                       1.87500000E-01  1.87500000E-01  2.50000000E-01
                       3.12500000E-01  1.87500000E-01  2.50000000E-01
                       4.37500000E-01  1.87500000E-01  2.50000000E-01
                       3.12500000E-01  3.12500000E-01  2.50000000E-01
                       4.37500000E-01  3.12500000E-01  2.50000000E-01
                       4.37500000E-01  4.37500000E-01  2.50000000E-01
         kptrlatt        8    0    0      0    8    0      0    0    2
          kptrlen      6.20994534E+01
P           mkmem           2
            natom           6
            nband          52
            ngfft          36      36     128
             nkpt          10
            nstep         150
             nsym           8
           ntypat           3
              occ      2.000000  2.000000  2.000000  2.000000  2.000000  2.000000
                       2.000000  2.000000  2.000000  2.000000  2.000000  2.000000
                       2.000000  2.000000  2.000000  2.000000  2.000000  2.000000
                       2.000000  2.000000  2.000000  2.000000  2.000000  2.000000
                       2.000000  2.000000  2.000000  2.000000  2.000000  2.000000
                       2.000000  2.000000  2.000000  2.000000  2.000000  2.000000
                       2.000000  2.000000  2.000000  2.000000  2.000000  2.000000
                       2.000000  2.000000  2.000000  2.000000  2.000000  2.000000
                       2.000000  2.000000  2.000000  0.000000
           prtcif           1
            rprim      1.0000000000E+00  0.0000000000E+00  0.0000000000E+00
                       0.0000000000E+00  1.0000000000E+00  0.0000000000E+00
                       0.0000000000E+00  0.0000000000E+00  3.7552899407E+00
           shiftk      5.00000000E-01  5.00000000E-01  5.00000000E-01
          spgroup          99
           symrel      1  0  0   0  1  0   0  0  1       1  0  0   0 -1  0   0  0  1
                      -1  0  0   0 -1  0   0  0  1      -1  0  0   0  1  0   0  0  1
                       0  1  0   1  0  0   0  0  1       0  1  0  -1  0  0   0  0  1
                       0 -1  0  -1  0  0   0  0  1       0 -1  0   1  0  0   0  0  1
            tnons      0.0000000  0.0000000  0.0000000     0.0000000  0.0000000  0.0000000
                       0.0000000  0.0000000  0.0000000     0.0000000  0.0000000  0.0000000
                       0.5000000  0.5000000  0.0000000     0.5000000  0.5000000  0.0000000
                       0.5000000  0.5000000  0.0000000     0.5000000  0.5000000  0.0000000
           toldfe      1.00000000E-07 Hartree
            typat      1  2  2  2  3  3
           vdw_xc           5
              wtk        0.06250    0.12500    0.12500    0.12500    0.06250    0.12500
                         0.12500    0.06250    0.12500    0.06250
           xangst      2.0538509643E+00  0.0000000000E+00  4.6664635074E+00
                       0.0000000000E+00  2.0538509643E+00  4.6982402675E+00
                       2.0538509643E+00  0.0000000000E+00  7.7691247742E+00
                       0.0000000000E+00  2.0538509643E+00  1.0759148224E+01
                       2.0538509643E+00  2.0538509643E+00  9.2641442120E+00
                       0.0000000000E+00  0.0000000000E+00  9.2641442120E+00
            xcart      3.8812158402E+00  0.0000000000E+00  8.8183380380E+00
                       0.0000000000E+00  3.8812158402E+00  8.8783874121E+00
                       3.8812158402E+00  0.0000000000E+00  1.4681518115E+01
                       0.0000000000E+00  3.8812158402E+00  2.0331843567E+01
                       3.8812158402E+00  3.8812158402E+00  1.7506695416E+01
                       0.0000000000E+00  0.0000000000E+00  1.7506695416E+01
             xred      5.0000000000E-01  0.0000000000E+00  3.0251400000E-01
                       0.0000000000E+00  5.0000000000E-01  3.0457400000E-01
                       5.0000000000E-01  0.0000000000E+00  5.0365100000E-01
                       0.0000000000E+00  5.0000000000E-01  6.9748600000E-01
                       5.0000000000E-01  5.0000000000E-01  6.0056900000E-01
                       0.0000000000E+00  0.0000000000E+00  6.0056900000E-01
            znucl       50.00000   34.00000   30.00000

 chkinp: Checking input parameters for consistency.

== DATASET  1 ==================================================================
-   mpi_nproc: 6, omp_nthreads: -1 (-1 if OMP is not activated)

--- !DatasetInfo
iteration_state: {dtset: 1, }
dimensions: {natom: 6, nkpt: 10, mband: 52, nsppol: 1, nspinor: 1, nspden: 1, mpw: 8978, }
cutoff_energies: {ecut:  22.5, pawecutdg:  -1.0, }
electrons: {nelect:   1.02000000E+02, charge:   0.00000000E+00, occopt:   1.00000000E+00, tsmear:   1.00000000E-02, }
meta: {optdriver: 0, ionmov: 0, optcell: 0, iscf: 17, paral_kgb: 0, }
...

 Real(R)+Recip(G) space primitive vectors, cartesian coordinates (Bohr,Bohr^-1):
 R(1)=  7.7624317  0.0000000  0.0000000  G(1)=  0.1288256  0.0000000  0.0000000
 R(2)=  0.0000000  7.7624317  0.0000000  G(2)=  0.0000000  0.1288256  0.0000000
 R(3)=  0.0000000  0.0000000 29.1501816  G(3)=  0.0000000  0.0000000  0.0343051
 Unit cell volume ucvol=  1.7564543E+03 bohr^3
 Angles (23,13,12)=  9.00000000E+01  9.00000000E+01  9.00000000E+01 degrees

 getcut: wavevector=  0.0000  0.0000  0.0000  ngfft=  36  36 128
         ecut(hartree)=     22.500   => boxcut(ratio)=   2.05642

--- Pseudopotential description ------------------------------------------------
- pspini: atom type   1  psp file is ../../../Psps_for_tests/ATOMICDATA_NC/Sn.psp8
- pspatm: opening atomic psp file    ../../../Psps_for_tests/ATOMICDATA_NC/Sn.psp8
- Sn    ONCVPSP  r_core=  2.27  2.62  1.86
- 50.00000  14.00000    150810                znucl, zion, pspdat
    8   11    2    4       600   0.00000      pspcod,pspxc,lmax,lloc,mmax,r2well
    5.99000000000000    6.50000000000000    0.00000000000000   rchrg,fchrg,qchrg
     nproj     2     2     2
     extension_switch     1
  pspatm : epsatm=   32.65190642
         --- l  ekb(1:nproj) -->
             0    5.462393    0.682281
             1    4.443814    0.825686
             2   -5.382195   -1.704077
 pspatm: atomic psp has been read  and splines computed

- pspini: atom type   2  psp file is ../../../Psps_for_tests/ATOMICDATA_NC/Se.psp8
- pspatm: opening atomic psp file    ../../../Psps_for_tests/ATOMICDATA_NC/Se.psp8
- Se    ONCVPSP  r_core=  1.82  1.50  1.91
- 34.00000  16.00000    150729                znucl, zion, pspdat
    8   11    2    4       600   0.00000      pspcod,pspxc,lmax,lloc,mmax,r2well
    5.99000000000000    5.00000000000000    0.00000000000000   rchrg,fchrg,qchrg
     nproj     2     2     2
     extension_switch     1
  pspatm : epsatm=   29.53325930
         --- l  ekb(1:nproj) -->
             0    8.612261    0.939919
             1    6.984962    1.281898
             2   -9.322521   -3.856218
 pspatm: atomic psp has been read  and splines computed

- pspini: atom type   3  psp file is ../../../Psps_for_tests/ATOMICDATA_NC/Zn.psp8
- pspatm: opening atomic psp file    ../../../Psps_for_tests/ATOMICDATA_NC/Zn.psp8
- Zn    ONCVPSP  r_core=  1.36  1.66  1.85
- 30.00000  20.00000    161102                znucl, zion, pspdat
    8   11    2    4       600   0.00000      pspcod,pspxc,lmax,lloc,mmax,r2well
    5.99000000000000    2.50000000000000    0.00000000000000   rchrg,fchrg,qchrg
     nproj     2     2     2
     extension_switch     1
  pspatm : epsatm=   26.67245340
         --- l  ekb(1:nproj) -->
             0    2.404235   -1.533451
             1   -4.677427   -1.530630
             2   -7.000316   -2.622858
 pspatm: atomic psp has been read  and splines computed

   1.78088523E+04                                ecore*ucvol(ha*bohr**3)

_setup2: Arith. and geom. avg. npw (full set) are    8951.750    8951.744

--- !BeginCycle
iteration_state: {dtset: 1, }
solver: {iscf: 17, nstep: 150, nline: 4, wfoptalg: 0, }
tolerances: {toldfe: 1.00E-07, }
...

     iter   Etot(hartree)      deltaE(h)  residm     nres2
 ETOT  1  -842.80808320176    -8.428E+02 1.068E+00 1.733E+03
 ETOT  2  -897.66917669507    -5.486E+01 8.785E-01 3.852E+03
 ETOT  3  -850.63143080271     4.704E+01 2.362E+00 6.617E+02
 ETOT  4  -858.45090196881    -7.819E+00 1.088E+00 3.366E+02
 ETOT  5  -858.71196450273    -2.611E-01 1.453E-01 2.555E+02
 ETOT  6  -857.82599741863     8.860E-01 4.055E-02 1.097E+02
 ETOT  7  -856.75868808710     1.067E+00 1.496E-02 4.855E+01
 ETOT  8  -856.12161402391     6.371E-01 6.559E-02 6.411E+00
 ETOT  9  -856.21418772381    -9.257E-02 3.822E-02 6.559E+00
 ETOT 10  -856.16701997082     4.717E-02 5.362E-02 2.242E+00
 ETOT 11  -856.12000130482     4.702E-02 9.280E-03 3.725E-01
 ETOT 12  -856.10341482328     1.659E-02 2.141E-03 8.375E-02
 ETOT 13  -856.09507840356     8.336E-03 3.426E-03 3.084E-02
 ETOT 14  -856.09145762286     3.621E-03 1.015E-03 1.031E-02
 ETOT 15  -856.09042874440     1.029E-03 2.988E-04 3.758E-03
 ETOT 16  -856.09008998673     3.388E-04 1.818E-04 2.018E-03
 ETOT 17  -856.08997360693     1.164E-04 9.035E-05 8.522E-04
 ETOT 18  -856.08998660472    -1.300E-05 3.813E-05 3.362E-04
 ETOT 19  -856.09001884083    -3.224E-05 3.864E-05 1.709E-04
 ETOT 20  -856.09007283478    -5.399E-05 3.801E-05 5.012E-05
 ETOT 21  -856.09011178981    -3.896E-05 6.951E-05 4.415E-06
 ETOT 22  -856.09011487621    -3.086E-06 6.436E-05 1.149E-06
 ETOT 23  -856.09011559423    -7.180E-07 1.101E-04 2.909E-07
 ETOT 24  -856.09011579235    -1.981E-07 9.518E-05 8.967E-08
 ETOT 25  -856.09011583128    -3.893E-08 1.543E-04 2.117E-08
 ETOT 26  -856.09011584381    -1.253E-08 1.251E-04 6.715E-09

 At SCF step   26, etot is converged :
  for the second time, diff in etot=  1.253E-08 < toldfe=  1.000E-07

 Cartesian components of stress tensor (hartree/bohr^3)
  sigma(1 1)=  1.32285777E-02  sigma(3 2)=  0.00000000E+00
  sigma(2 2)=  1.32285777E-02  sigma(3 1)=  0.00000000E+00
  sigma(3 3)=  1.32332829E-02  sigma(2 1)=  0.00000000E+00

--- !ResultsGS
iteration_state: {dtset: 1, }
comment   : Summary of ground state results
lattice_vectors:
- [  7.7624317,   0.0000000,   0.0000000, ]
- [  0.0000000,   7.7624317,   0.0000000, ]
- [  0.0000000,   0.0000000,  29.1501816, ]
lattice_lengths: [   7.76243,    7.76243,   29.15018, ]
lattice_angles: [ 90.000,  90.000,  90.000, ] # degrees, (23, 13, 12)
lattice_volume:   1.7564543E+03
convergence: {deltae: -1.253E-08, res2:  6.715E-09, residm:  1.251E-04, diffor: null, }
etotal    :  -8.56090116E+02
entropy   :   0.00000000E+00
fermie    :   4.84872474E-02
cartesian_stress_tensor: # hartree/bohr^3
- [  1.32285777E-02,   0.00000000E+00,   0.00000000E+00, ]
- [  0.00000000E+00,   1.32285777E-02,   0.00000000E+00, ]
- [  0.00000000E+00,   0.00000000E+00,   1.32332829E-02, ]
pressure_GPa:  -3.8924E+02
xred      :
- [  5.0000E-01,   0.0000E+00,   3.0251E-01, Sn]
- [  0.0000E+00,   5.0000E-01,   3.0457E-01, Se]
- [  5.0000E-01,   0.0000E+00,   5.0365E-01, Se]
- [  0.0000E+00,   5.0000E-01,   6.9749E-01, Se]
- [  5.0000E-01,   5.0000E-01,   6.0057E-01, Zn]
- [  0.0000E+00,   0.0000E+00,   6.0057E-01, Zn]
cartesian_forces: # hartree/bohr
- [ -0.00000000E+00,  -0.00000000E+00,  -6.41264171E-03, ]
- [ -0.00000000E+00,  -0.00000000E+00,   3.31884840E-03, ]
- [ -0.00000000E+00,  -0.00000000E+00,   8.54946507E-03, ]
- [ -0.00000000E+00,  -0.00000000E+00,  -1.20604649E-02, ]
- [ -0.00000000E+00,  -0.00000000E+00,   3.30239657E-03, ]
- [ -0.00000000E+00,  -0.00000000E+00,   3.30239657E-03, ]
force_length_stats: {min:   3.30239657E-03, max:   1.20604649E-02, mean:   6.15770221E-03, }
...

 Integrated electronic density in atomic spheres:
 Atom  Sphere_radius  Integrated_density
    1        2.00000         10.54273672
    2        2.00000         13.25875451
    3        2.00000         13.24395744
    4        2.00000         13.28220763
    5        2.00000         18.10712946
    6        2.00000         18.10712946

 ----iterations are completed or convergence reached----

 Mean square residual over all n,k,spin=   24.239E-08; max=  12.515E-05
 reduced coordinates (array xred) for    6 atoms
       0.500000000000      0.000000000000      0.302514000000
       0.000000000000      0.500000000000      0.304574000000
       0.500000000000      0.000000000000      0.503651000000
       0.000000000000      0.500000000000      0.697486000000
       0.500000000000      0.500000000000      0.600569000000
       0.000000000000      0.000000000000      0.600569000000
 rms dE/dt=  1.2520E-01; max dE/dt=  2.7674E-01; dE/dt below (all hartree)
    1       0.000000000000      0.000000000000      0.112101916286
    2       0.000000000000      0.000000000000     -0.171572787825
    3       0.000000000000      0.000000000000     -0.324046213703
    4       0.000000000000      0.000000000000      0.276736988048
    5       0.000000000000      0.000000000000     -0.171093214033
    6       0.000000000000      0.000000000000     -0.171093214033

 cartesian coordinates (angstrom) at end:
    1      2.05385096425820     0.00000000000000     4.66646350736065
    2      0.00000000000000     2.05385096425820     4.69824026752766
    3      2.05385096425820     0.00000000000000     7.76912477421110
    4      0.00000000000000     2.05385096425820    10.75914822419772
    5      2.05385096425820     2.05385096425820     9.26414421201027
    6      0.00000000000000     0.00000000000000     9.26414421201027

 cartesian forces (hartree/bohr) at end:
    1     -0.00000000000000    -0.00000000000000    -0.00641264171283
    2     -0.00000000000000    -0.00000000000000     0.00331884840123
    3     -0.00000000000000    -0.00000000000000     0.00854946507269
    4     -0.00000000000000    -0.00000000000000    -0.01206046490631
    5     -0.00000000000000    -0.00000000000000     0.00330239657261
    6     -0.00000000000000    -0.00000000000000     0.00330239657261
 frms,max,avg= 4.0311050E-03 1.2060465E-02   0.000E+00  0.000E+00  2.567E-03 h/b

 cartesian forces (eV/Angstrom) at end:
    1     -0.00000000000000    -0.00000000000000    -0.32975126738633
    2     -0.00000000000000    -0.00000000000000     0.17066203221321
    3     -0.00000000000000    -0.00000000000000     0.43963113322774
    4     -0.00000000000000    -0.00000000000000    -0.62017398854003
    5     -0.00000000000000    -0.00000000000000     0.16981604524270
    6     -0.00000000000000    -0.00000000000000     0.16981604524270
 frms,max,avg= 2.0728774E-01 6.2017399E-01   0.000E+00  0.000E+00  1.320E-01 e/A
 length scales=  7.762431680422  7.762431680422  7.762431680422 bohr
              =  4.107701928516  4.107701928516  4.107701928516 angstroms
 prteigrs : about to open file Cs2TiI6o_EIG
 Fermi (or HOMO) energy (hartree) =   0.04849   Average Vxc (hartree)=  -0.23378
 Eigenvalues (hartree) for nkpt=  10  k points:
 kpt#   1, nband= 52, wtk=  0.06250, kpt=  0.0625  0.0625  0.2500 (reduced coord)
  -4.85038   -4.85038   -3.08792   -3.08770   -3.08521   -3.08514   -3.08451   -3.08445
  -1.80131   -1.80060   -1.79995   -1.79916   -1.79820   -1.79498   -1.79492   -1.79390
  -1.79172   -1.79149   -1.72267   -1.72168   -1.71844   -1.71777   -1.71708   -0.75995
  -0.75715   -0.75704   -0.75285   -0.75269   -0.52292   -0.49695   -0.43441   -0.31275
  -0.31173   -0.31059   -0.31045   -0.30904   -0.29751   -0.29710   -0.29607   -0.29065
  -0.29012   -0.20483   -0.15715   -0.12708   -0.12451   -0.08414   -0.06079   -0.05797
  -0.04871   -0.03914   -0.02713    0.03192
 prteigrs : prtvol=0 or 1, do not print more k-points.

--- !EnergyTerms
iteration_state     : {dtset: 1, }
comment             : Components of total free energy in Hartree
kinetic             :  4.51767486469590E+02
hartree             :  9.53596032301991E+02
xc                  : -1.37861542340234E+02
Ewald energy        :  2.40791015068043E+02
psp_core            :  1.01390925080127E+01
local_psp           : -2.10998765318316E+03
non_local_psp       : -2.64496163342886E+02
VdWaals_dft_d       : -3.83849335082636E-02
total_energy        : -8.56090117452153E+02
...

--- !EnergyTermsDC
iteration_state     : {dtset: 1, }
comment             : '"Double-counting" decomposition of free energy'
band_energy         : -1.28117491315781E+02
Ewald energy        :  2.40791015068043E+02
psp_core            :  1.01390925080127E+01
xc_dc               : -9.78864347170572E+02
VdWaals_dft_d       : -3.83849335082636E-02
total_energy_dc     : -8.56090115843805E+02
...

 Cartesian components of stress tensor (hartree/bohr^3)
  sigma(1 1)=  1.32285777E-02  sigma(3 2)=  0.00000000E+00
  sigma(2 2)=  1.32285777E-02  sigma(3 1)=  0.00000000E+00
  sigma(3 3)=  1.32332829E-02  sigma(2 1)=  0.00000000E+00

-Cartesian components of stress tensor (GPa)         [Pressure= -3.8924E+02 GPa]
- sigma(1 1)=  3.89198127E+02  sigma(3 2)=  0.00000000E+00
- sigma(2 2)=  3.89198127E+02  sigma(3 1)=  0.00000000E+00
- sigma(3 3)=  3.89336560E+02  sigma(2 1)=  0.00000000E+00

== END DATASET(S) ==============================================================

 -outvars: echo values of variables after computation  --------
            acell      7.7624316804E+00  7.7624316804E+00  7.7624316804E+00 Bohr
              amu      1.18710000E+02  7.89600000E+01  6.53900000E+01
           diemac      1.20000000E+01
             ecut      2.25000000E+01 Hartree
           etotal     -8.5609011584E+02
            fcart     -0.0000000000E+00 -0.0000000000E+00 -6.4126417128E-03
                      -0.0000000000E+00 -0.0000000000E+00  3.3188484012E-03
                      -0.0000000000E+00 -0.0000000000E+00  8.5494650727E-03
                      -0.0000000000E+00 -0.0000000000E+00 -1.2060464906E-02
                      -0.0000000000E+00 -0.0000000000E+00  3.3023965726E-03
                      -0.0000000000E+00 -0.0000000000E+00  3.3023965726E-03
-          fftalg         112
             iscf          17
              ixc          11
              kpt      6.25000000E-02  6.25000000E-02  2.50000000E-01
                       1.87500000E-01  6.25000000E-02  2.50000000E-01
                       3.12500000E-01  6.25000000E-02  2.50000000E-01
                       4.37500000E-01  6.25000000E-02  2.50000000E-01
                       1.87500000E-01  1.87500000E-01  2.50000000E-01
                       3.12500000E-01  1.87500000E-01  2.50000000E-01
                       4.37500000E-01  1.87500000E-01  2.50000000E-01
                       3.12500000E-01  3.12500000E-01  2.50000000E-01
                       4.37500000E-01  3.12500000E-01  2.50000000E-01
                       4.37500000E-01  4.37500000E-01  2.50000000E-01
         kptrlatt        8    0    0      0    8    0      0    0    2
          kptrlen      6.20994534E+01
P           mkmem           2
            natom           6
            nband          52
            ngfft          36      36     128
             nkpt          10
            nstep         150
             nsym           8
           ntypat           3
              occ      2.000000  2.000000  2.000000  2.000000  2.000000  2.000000
                       2.000000  2.000000  2.000000  2.000000  2.000000  2.000000
                       2.000000  2.000000  2.000000  2.000000  2.000000  2.000000
                       2.000000  2.000000  2.000000  2.000000  2.000000  2.000000
                       2.000000  2.000000  2.000000  2.000000  2.000000  2.000000
                       2.000000  2.000000  2.000000  2.000000  2.000000  2.000000
                       2.000000  2.000000  2.000000  2.000000  2.000000  2.000000
                       2.000000  2.000000  2.000000  2.000000  2.000000  2.000000
                       2.000000  2.000000  2.000000  0.000000
           prtcif           1
            rprim      1.0000000000E+00  0.0000000000E+00  0.0000000000E+00
                       0.0000000000E+00  1.0000000000E+00  0.0000000000E+00
                       0.0000000000E+00  0.0000000000E+00  3.7552899407E+00
           shiftk      5.00000000E-01  5.00000000E-01  5.00000000E-01
          spgroup          99
           strten      1.3228577676E-02  1.3228577676E-02  1.3233282931E-02
                       0.0000000000E+00  0.0000000000E+00  0.0000000000E+00
           symrel      1  0  0   0  1  0   0  0  1       1  0  0   0 -1  0   0  0  1
                      -1  0  0   0 -1  0   0  0  1      -1  0  0   0  1  0   0  0  1
                       0  1  0   1  0  0   0  0  1       0  1  0  -1  0  0   0  0  1
                       0 -1  0  -1  0  0   0  0  1       0 -1  0   1  0  0   0  0  1
            tnons      0.0000000  0.0000000  0.0000000     0.0000000  0.0000000  0.0000000
                       0.0000000  0.0000000  0.0000000     0.0000000  0.0000000  0.0000000
                       0.5000000  0.5000000  0.0000000     0.5000000  0.5000000  0.0000000
                       0.5000000  0.5000000  0.0000000     0.5000000  0.5000000  0.0000000
           toldfe      1.00000000E-07 Hartree
            typat      1  2  2  2  3  3
           vdw_xc           5
              wtk        0.06250    0.12500    0.12500    0.12500    0.06250    0.12500
                         0.12500    0.06250    0.12500    0.06250
           xangst      2.0538509643E+00  0.0000000000E+00  4.6664635074E+00
                       0.0000000000E+00  2.0538509643E+00  4.6982402675E+00
                       2.0538509643E+00  0.0000000000E+00  7.7691247742E+00
                       0.0000000000E+00  2.0538509643E+00  1.0759148224E+01
                       2.0538509643E+00  2.0538509643E+00  9.2641442120E+00
                       0.0000000000E+00  0.0000000000E+00  9.2641442120E+00
            xcart      3.8812158402E+00  0.0000000000E+00  8.8183380380E+00
                       0.0000000000E+00  3.8812158402E+00  8.8783874121E+00
                       3.8812158402E+00  0.0000000000E+00  1.4681518115E+01
                       0.0000000000E+00  3.8812158402E+00  2.0331843567E+01
                       3.8812158402E+00  3.8812158402E+00  1.7506695416E+01
                       0.0000000000E+00  0.0000000000E+00  1.7506695416E+01
             xred      5.0000000000E-01  0.0000000000E+00  3.0251400000E-01
                       0.0000000000E+00  5.0000000000E-01  3.0457400000E-01
                       5.0000000000E-01  0.0000000000E+00  5.0365100000E-01
                       0.0000000000E+00  5.0000000000E-01  6.9748600000E-01
                       5.0000000000E-01  5.0000000000E-01  6.0056900000E-01
                       0.0000000000E+00  0.0000000000E+00  6.0056900000E-01
            znucl       50.00000   34.00000   30.00000

- Timing analysis has been suppressed with timopt=0

 Suggested references for the acknowledgment of ABINIT usage.

 Calculation completed.
.Delivered   0 WARNINGs and   0 COMMENTs to log file.