.Version 9.2.2 of ABINIT

 ABINIT is a project of the Universite Catholique de Louvain,
 Corning Inc. and other collaborators, see ~abinit/doc/developers/contributors.txt .
 acknowledgments of the ABINIT effort.

.Starting date : Sat 16 Mar 2024.
- ( at 17h41 )

- The starting date is more than 3 years after the initial release
- of this version of ABINIT, namely Nov 2020.
- This version of ABINIT is not supported anymore.
- Action: please, switch to a more recent version of ABINIT.
- input  file    -> Cs2TiI6.in
- output file    -> Cs2TiI6.out
- root for input  files -> Cs2TiI6i
- root for output files -> Cs2TiI6o

 Symmetries : space group P4 m m (# 99); Bravais tP (primitive tetrag.)
     intxc =       0    ionmov =       0      iscf =      17    lmnmax =       6
     lnmax =       6     mgfft =     180  mpssoang =       3    mqgrid =    8458
     natom =      10  nloc_mem =       1    nspden =       1   nspinor =       1
    nsppol =       1      nsym =       8    n1xccc =    2501    ntypat =       3
    occopt =       1   xclevel =       2
-    mband =          83        mffmem =           1         mkmem =           1
       mpw =       12212          nfft =      233280          nkpt =           6
  Rough estimation (10% accuracy) of disk space for files :

------------- Echo of variables that govern the present computation ------------
-
- outvars: echo of selected default values
-   iomode0 =  0 , fftalg0 =112 , wfoptalg0 =  0
-
- outvars: echo of global parameters not present in the input file
-  max_nthreads =    0
-
 -outvars: echo values of preprocessed input variables --------
            acell      7.7624316804E+00  7.7624316804E+00  7.7624316804E+00 Bohr
              amu      1.18710000E+02  7.89600000E+01  6.53900000E+01
           diemac      1.20000000E+01
             ecut      2.25000000E+01 Hartree
-          fftalg         112
             iscf          17
              ixc          11
              kpt      8.33333333E-02  8.33333333E-02  5.00000000E-01
                       2.50000000E-01  8.33333333E-02  5.00000000E-01
                       4.16666667E-01  8.33333333E-02  5.00000000E-01
                       2.50000000E-01  2.50000000E-01  5.00000000E-01
                       4.16666667E-01  2.50000000E-01  5.00000000E-01
                       4.16666667E-01  4.16666667E-01  5.00000000E-01
         kptrlatt        6    0    0      0    6    0      0    0    1
          kptrlen      4.65745901E+01
P           mkmem           1
            natom          10
            nband          83
            ngfft          36      36     180
             nkpt           6
            nstep         150
             nsym           8
           ntypat           3
              occ      2.000000  2.000000  2.000000  2.000000  2.000000  2.000000
                       2.000000  2.000000  2.000000  2.000000  2.000000  2.000000
                       2.000000  2.000000  2.000000  2.000000  2.000000  2.000000
                       2.000000  2.000000  2.000000  2.000000  2.000000  2.000000
                       2.000000  2.000000  2.000000  2.000000  2.000000  2.000000
                       2.000000  2.000000  2.000000  2.000000  2.000000  2.000000
                       2.000000  2.000000  2.000000  2.000000  2.000000  2.000000
                       2.000000  2.000000  2.000000  2.000000  2.000000  2.000000
                       2.000000  2.000000  2.000000  2.000000  2.000000  2.000000
                       2.000000  2.000000  2.000000  2.000000  2.000000  2.000000
                       2.000000  2.000000  2.000000  2.000000  2.000000  2.000000
                       2.000000  2.000000  2.000000  2.000000  2.000000  2.000000
                       2.000000  2.000000  2.000000  2.000000  2.000000  2.000000
                       2.000000  2.000000  2.000000  0.000000  0.000000
           prtcif           1
            prtwf           0
            rprim      1.0000000000E+00  0.0000000000E+00  0.0000000000E+00
                       0.0000000000E+00  1.0000000000E+00  0.0000000000E+00
                       0.0000000000E+00  0.0000000000E+00  5.1025955632E+00
           shiftk      5.00000000E-01  5.00000000E-01  5.00000000E-01
          spgroup          99
           symrel      1  0  0   0  1  0   0  0  1       1  0  0   0 -1  0   0  0  1
                      -1  0  0   0 -1  0   0  0  1      -1  0  0   0  1  0   0  0  1
                       0  1  0   1  0  0   0  0  1       0  1  0  -1  0  0   0  0  1
                       0 -1  0  -1  0  0   0  0  1       0 -1  0   1  0  0   0  0  1
            tnons      0.0000000  0.0000000  0.0000000     0.0000000 -0.0000000  0.0000000
                      -0.0000000 -0.0000000  0.0000000    -0.0000000  0.0000000  0.0000000
                       0.5000000  0.5000000  0.0000000     0.5000000  0.5000000  0.0000000
                       0.5000000  0.5000000  0.0000000     0.5000000  0.5000000  0.0000000
           toldfe      1.00000000E-07 Hartree
            typat      1  1  1  2  2  2  2  2  3  3
           vdw_xc           5
              wtk        0.11111    0.22222    0.22222    0.11111    0.22222    0.11111
           xangst      2.0538509643E+00  0.0000000000E+00  4.6664585258E+00
                       0.0000000000E+00  2.0538509643E+00  7.4160884693E+00
                       2.0538509643E+00  0.0000000000E+00  1.0102188830E+01
                       0.0000000000E+00  2.0538509643E+00  4.6982337974E+00
                       2.0538509643E+00  0.0000000000E+00  7.3843341577E+00
                       0.0000000000E+00  2.0538509643E+00  1.0133964101E+01
                       2.0538509643E+00  0.0000000000E+00  1.3303463595E+01
                       0.0000000000E+00  2.0538509643E+00  1.6293483109E+01
                       2.0538509643E+00  2.0538509643E+00  1.4798473352E+01
                       0.0000000000E+00  0.0000000000E+00  1.4798473352E+01
            xcart      3.8812158402E+00  0.0000000000E+00  8.8183286243E+00
                       0.0000000000E+00  3.8812158402E+00  1.4014376184E+01
                       3.8812158402E+00  0.0000000000E+00  1.9090370231E+01
                       0.0000000000E+00  3.8812158402E+00  8.8783751853E+00
                       3.8812158402E+00  0.0000000000E+00  1.3954369232E+01
                       0.0000000000E+00  3.8812158402E+00  1.9150416792E+01
                       3.8812158402E+00  0.0000000000E+00  2.5139902814E+01
                       0.0000000000E+00  3.8812158402E+00  3.0790220828E+01
                       3.8812158402E+00  3.8812158402E+00  2.7965061821E+01
                       0.0000000000E+00  0.0000000000E+00  2.7965061821E+01
             xred      5.0000000000E-01  0.0000000000E+00  2.2263700000E-01
                       0.0000000000E+00  5.0000000000E-01  3.5382200000E-01
                       5.0000000000E-01  0.0000000000E+00  4.8197600000E-01
                       0.0000000000E+00  5.0000000000E-01  2.2415300000E-01
                       5.0000000000E-01  0.0000000000E+00  3.5230700000E-01
                       0.0000000000E+00  5.0000000000E-01  4.8349200000E-01
                       5.0000000000E-01  0.0000000000E+00  6.3470900000E-01
                       0.0000000000E+00  5.0000000000E-01  7.7736300000E-01
                       5.0000000000E-01  5.0000000000E-01  7.0603600000E-01
                       0.0000000000E+00  0.0000000000E+00  7.0603600000E-01
            znucl       50.00000   34.00000   30.00000

 chkinp: Checking input parameters for consistency.

== DATASET  1 ==================================================================
-   mpi_nproc: 6, omp_nthreads: -1 (-1 if OMP is not activated)

--- !DatasetInfo
iteration_state: {dtset: 1, }
dimensions: {natom: 10, nkpt: 6, mband: 83, nsppol: 1, nspinor: 1, nspden: 1, mpw: 12212, }
cutoff_energies: {ecut:  22.5, pawecutdg:  -1.0, }
electrons: {nelect:   1.62000000E+02, charge:   0.00000000E+00, occopt:   1.00000000E+00, tsmear:   1.00000000E-02, }
meta: {optdriver: 0, ionmov: 0, optcell: 0, iscf: 17, paral_kgb: 0, }
...

 Real(R)+Recip(G) space primitive vectors, cartesian coordinates (Bohr,Bohr^-1):
 R(1)=  7.7624317  0.0000000  0.0000000  G(1)=  0.1288256  0.0000000  0.0000000
 R(2)=  0.0000000  7.7624317  0.0000000  G(2)=  0.0000000  0.1288256  0.0000000
 R(3)=  0.0000000  0.0000000 39.6085495  G(3)=  0.0000000  0.0000000  0.0252471
 Unit cell volume ucvol=  2.3866268E+03 bohr^3
 Angles (23,13,12)=  9.00000000E+01  9.00000000E+01  9.00000000E+01 degrees

 getcut: wavevector=  0.0000  0.0000  0.0000  ngfft=  36  36 180
         ecut(hartree)=     22.500   => boxcut(ratio)=   2.12827

--- Pseudopotential description ------------------------------------------------
- pspini: atom type   1  psp file is ../../../Psps_for_tests/ATOMICDATA_NC/Sn.psp8
- pspatm: opening atomic psp file    ../../../Psps_for_tests/ATOMICDATA_NC/Sn.psp8
- Sn    ONCVPSP  r_core=  2.27  2.62  1.86
- 50.00000  14.00000    150810                znucl, zion, pspdat
    8   11    2    4       600   0.00000      pspcod,pspxc,lmax,lloc,mmax,r2well
    5.99000000000000    6.50000000000000    0.00000000000000   rchrg,fchrg,qchrg
     nproj     2     2     2
     extension_switch     1
  pspatm : epsatm=   32.65190642
         --- l  ekb(1:nproj) -->
             0    5.462393    0.682281
             1    4.443814    0.825686
             2   -5.382195   -1.704077
 pspatm: atomic psp has been read  and splines computed

- pspini: atom type   2  psp file is ../../../Psps_for_tests/ATOMICDATA_NC/Se.psp8
- pspatm: opening atomic psp file    ../../../Psps_for_tests/ATOMICDATA_NC/Se.psp8
- Se    ONCVPSP  r_core=  1.82  1.50  1.91
- 34.00000  16.00000    150729                znucl, zion, pspdat
    8   11    2    4       600   0.00000      pspcod,pspxc,lmax,lloc,mmax,r2well
    5.99000000000000    5.00000000000000    0.00000000000000   rchrg,fchrg,qchrg
     nproj     2     2     2
     extension_switch     1
  pspatm : epsatm=   29.53325930
         --- l  ekb(1:nproj) -->
             0    8.612261    0.939919
             1    6.984962    1.281898
             2   -9.322521   -3.856218
 pspatm: atomic psp has been read  and splines computed

- pspini: atom type   3  psp file is ../../../Psps_for_tests/ATOMICDATA_NC/Zn.psp8
- pspatm: opening atomic psp file    ../../../Psps_for_tests/ATOMICDATA_NC/Zn.psp8
- Zn    ONCVPSP  r_core=  1.36  1.66  1.85
- 30.00000  20.00000    161102                znucl, zion, pspdat
    8   11    2    4       600   0.00000      pspcod,pspxc,lmax,lloc,mmax,r2well
    5.99000000000000    2.50000000000000    0.00000000000000   rchrg,fchrg,qchrg
     nproj     2     2     2
     extension_switch     1
  pspatm : epsatm=   26.67245340
         --- l  ekb(1:nproj) -->
             0    2.404235   -1.533451
             1   -4.677427   -1.530630
             2   -7.000316   -2.622858
 pspatm: atomic psp has been read  and splines computed

   4.84326415E+04                                ecore*ucvol(ha*bohr**3)

_setup2: Arith. and geom. avg. npw (full set) are   12172.889   12172.878

--- !BeginCycle
iteration_state: {dtset: 1, }
[...]

 At SCF step   28, etot is converged :
  for the second time, diff in etot=  2.777E-09 < toldfe=  1.000E-07

 Cartesian components of stress tensor (hartree/bohr^3)
  sigma(1 1)=  1.44764501E-02  sigma(3 2)=  0.00000000E+00
  sigma(2 2)=  1.44764501E-02  sigma(3 1)=  0.00000000E+00
  sigma(3 3)=  1.44062620E-02  sigma(2 1)=  0.00000000E+00

--- !ResultsGS
iteration_state: {dtset: 1, }
comment   : Summary of ground state results
lattice_vectors:
- [  7.7624317,   0.0000000,   0.0000000, ]
- [  0.0000000,   7.7624317,   0.0000000, ]
- [  0.0000000,   0.0000000,  39.6085495, ]
lattice_lengths: [   7.76243,    7.76243,   39.60855, ]
lattice_angles: [ 90.000,  90.000,  90.000, ] # degrees, (23, 13, 12)
lattice_volume:   2.3866268E+03
convergence: {deltae: -2.777E-09, res2:  3.167E-09, residm:  1.505E-05, diffor: null, }
etotal    :  -1.25401752E+03
entropy   :   0.00000000E+00
fermie    :   8.89286636E-02
cartesian_stress_tensor: # hartree/bohr^3
- [  1.44764501E-02,   0.00000000E+00,   0.00000000E+00, ]
- [  0.00000000E+00,   1.44764501E-02,   0.00000000E+00, ]
- [  0.00000000E+00,   0.00000000E+00,   1.44062620E-02, ]
pressure_GPa:  -4.2522E+02
xred      :
- [  5.0000E-01,   0.0000E+00,   2.2264E-01, Sn]
- [  0.0000E+00,   5.0000E-01,   3.5382E-01, Sn]
- [  5.0000E-01,   0.0000E+00,   4.8198E-01, Sn]
- [  0.0000E+00,   5.0000E-01,   2.2415E-01, Se]
- [  5.0000E-01,   0.0000E+00,   3.5231E-01, Se]
- [  0.0000E+00,   5.0000E-01,   4.8349E-01, Se]
- [  5.0000E-01,   0.0000E+00,   6.3471E-01, Se]
- [  0.0000E+00,   5.0000E-01,   7.7736E-01, Se]
- [  5.0000E-01,   5.0000E-01,   7.0604E-01, Zn]
- [  0.0000E+00,   0.0000E+00,   7.0604E-01, Zn]
cartesian_forces: # hartree/bohr
- [ -0.00000000E+00,  -0.00000000E+00,  -1.37587411E-02, ]
- [ -0.00000000E+00,  -0.00000000E+00,  -2.16198872E-03, ]
- [ -0.00000000E+00,  -0.00000000E+00,   1.21408762E-02, ]
- [ -0.00000000E+00,  -0.00000000E+00,  -1.66035129E-02, ]
- [ -0.00000000E+00,  -0.00000000E+00,   4.10882406E-04, ]
- [ -0.00000000E+00,  -0.00000000E+00,   2.09023672E-02, ]
- [ -0.00000000E+00,  -0.00000000E+00,   1.14858943E-02, ]
- [ -0.00000000E+00,  -0.00000000E+00,  -8.79675584E-03, ]
- [ -0.00000000E+00,  -0.00000000E+00,  -1.80951071E-03, ]
- [ -0.00000000E+00,  -0.00000000E+00,  -1.80951071E-03, ]
force_length_stats: {min:   4.10882406E-04, max:   2.09023672E-02, mean:   8.98800401E-03, }
...

 Integrated electronic density in atomic spheres:
 Atom  Sphere_radius  Integrated_density
    1        2.00000         10.54217837
    2        2.00000         10.57246700
    3        2.00000         10.54768746
    4        2.00000         13.30158335
    5        2.00000         13.31860181
    6        2.00000         13.27811710
    7        2.00000         13.26326374
    8        2.00000         13.25812155
    9        2.00000         18.10154423
   10        2.00000         18.10154423

 ----iterations are completed or convergence reached----

 Mean square residual over all n,k,spin=   34.630E-09; max=  15.047E-06
 reduced coordinates (array xred) for   10 atoms
       0.500000000000      0.000000000000      0.222637000000
       0.000000000000      0.500000000000      0.353822000000
       0.500000000000      0.000000000000      0.481976000000
       0.000000000000      0.500000000000      0.224153000000
       0.500000000000      0.000000000000      0.352307000000
       0.000000000000      0.500000000000      0.483492000000
       0.500000000000      0.000000000000      0.634709000000
       0.000000000000      0.500000000000      0.777363000000
       0.500000000000      0.500000000000      0.706036000000
       0.000000000000      0.000000000000      0.706036000000
 rms dE/dt=  2.5789E-01; max dE/dt=  6.7423E-01; dE/dt below (all hartree)
    1       0.000000000000      0.000000000000      0.561548480471
    2       0.000000000000      0.000000000000      0.102217939050
    3       0.000000000000      0.000000000000     -0.464297793017
    4       0.000000000000      0.000000000000      0.674225765059
    5       0.000000000000      0.000000000000      0.000310245974
    6       0.000000000000      0.000000000000     -0.811327742222
    7       0.000000000000      0.000000000000     -0.438354908410
    8       0.000000000000      0.000000000000      0.365011440713
    9       0.000000000000      0.000000000000      0.088256796538
   10       0.000000000000      0.000000000000      0.088256796538

 cartesian coordinates (angstrom) at end:
    1      2.05385096425820     0.00000000000000     4.66645852584673
    2      0.00000000000000     2.05385096425820     7.41608846926676
    3      2.05385096425820     0.00000000000000    10.10218882959034
    4      0.00000000000000     2.05385096425820     4.69823379736577
    5      2.05385096425820     0.00000000000000     7.38433415768936
    6      0.00000000000000     2.05385096425820    10.13396410110938
    7      2.05385096425820     0.00000000000000    13.30346359536670
    8      0.00000000000000     2.05385096425820    16.29348310940138
    9      2.05385096425820     2.05385096425820    14.79847335238404
   10      0.00000000000000     0.00000000000000    14.79847335238404

 cartesian forces (hartree/bohr) at end:
    1     -0.00000000000000    -0.00000000000000    -0.01375874112894
    2     -0.00000000000000    -0.00000000000000    -0.00216198871621
    3     -0.00000000000000    -0.00000000000000     0.01214087619316
    4     -0.00000000000000    -0.00000000000000    -0.01660351293068
    5     -0.00000000000000    -0.00000000000000     0.00041088240596
    6     -0.00000000000000    -0.00000000000000     0.02090236718456
    7     -0.00000000000000    -0.00000000000000     0.01148589425200
    8     -0.00000000000000    -0.00000000000000    -0.00879675583845
    9     -0.00000000000000    -0.00000000000000    -0.00180951071070
   10     -0.00000000000000    -0.00000000000000    -0.00180951071070
 frms,max,avg= 6.5063809E-03 2.0902367E-02   0.000E+00  0.000E+00 -4.187E-04 h/b

 cartesian forces (eV/Angstrom) at end:
    1     -0.00000000000000    -0.00000000000000    -0.70750285577788
    2     -0.00000000000000    -0.00000000000000    -0.11117392038575
    3     -0.00000000000000    -0.00000000000000     0.62430890281368
    4     -0.00000000000000    -0.00000000000000    -0.85378689113450
    5     -0.00000000000000    -0.00000000000000     0.02112842104389
    6     -0.00000000000000    -0.00000000000000     1.07484284623178
    7     -0.00000000000000    -0.00000000000000     0.59062838004556
    8     -0.00000000000000    -0.00000000000000    -0.45234733461115
    9     -0.00000000000000    -0.00000000000000    -0.09304877411282
   10     -0.00000000000000    -0.00000000000000    -0.09304877411282
 frms,max,avg= 3.3457153E-01 1.0748428E+00   0.000E+00  0.000E+00 -2.153E-02 e/A
 length scales=  7.762431680422  7.762431680422  7.762431680422 bohr
              =  4.107701928516  4.107701928516  4.107701928516 angstroms
 prteigrs : about to open file Cs2TiI6o_EIG
 Fermi (or HOMO) energy (hartree) =   0.08893   Average Vxc (hartree)=  -0.27665
 Eigenvalues (hartree) for nkpt=   6  k points:
 kpt#   1, nband= 83, wtk=  0.11111, kpt=  0.0833  0.0833  0.5000 (reduced coord)
  -4.78656   -4.78655   -3.02394   -3.02374   -3.02183   -3.02171   -3.02155   -3.02141
  -1.73773   -1.73750   -1.73690   -1.73662   -1.73608   -1.73189   -1.73188   -1.72963
  -1.72843   -1.72776   -1.72135   -1.72020   -1.71995   -1.71880   -1.71838   -1.69864
  -1.69851   -1.69794   -1.69517   -1.69503   -1.69469   -1.69364   -1.69236   -1.69117
  -1.69071   -0.71337   -0.71185   -0.71104   -0.71097   -0.71076   -0.71049   -0.70964
  -0.70959   -0.70944   -0.70921   -0.70387   -0.70376   -0.70372   -0.70190   -0.70184
  -0.45930   -0.45554   -0.43366   -0.41669   -0.39686   -0.24975   -0.24794   -0.24694
  -0.24650   -0.24600   -0.23470   -0.23419   -0.23312   -0.22901   -0.22664   -0.16930
  -0.16721   -0.13729   -0.10973   -0.09016   -0.07180   -0.06856   -0.06416   -0.04254
  -0.03390   -0.01142   -0.00867   -0.00752    0.00417    0.00567    0.01400    0.03321
   0.04494    0.10186    0.11959
 prteigrs : prtvol=0 or 1, do not print more k-points.

--- !EnergyTerms
iteration_state     : {dtset: 1, }
comment             : Components of total free energy in Hartree
kinetic             :  6.95073572885776E+02
hartree             :  1.38324792707400E+03
xc                  : -2.29651321249415E+02
Ewald energy        :  3.40917089620546E+02
psp_core            :  2.02933448731805E+01
local_psp           : -3.05587248325633E+03
non_local_psp       : -4.07927084186839E+02
VdWaals_dft_d       : -9.85609960043529E-02
total_energy        : -1.25401751523509E+03
...

--- !EnergyTermsDC
iteration_state     : {dtset: 1, }
comment             : '"Double-counting" decomposition of free energy'
band_energy         : -1.73478279051403E+02
Ewald energy        :  3.40917089620546E+02
psp_core            :  2.02933448731805E+01
xc_dc               : -1.44165111292613E+03
VdWaals_dft_d       : -9.85609960043529E-02
total_energy_dc     : -1.25401751847981E+03
...

 Cartesian components of stress tensor (hartree/bohr^3)
  sigma(1 1)=  1.44764501E-02  sigma(3 2)=  0.00000000E+00
  sigma(2 2)=  1.44764501E-02  sigma(3 1)=  0.00000000E+00
  sigma(3 3)=  1.44062620E-02  sigma(2 1)=  0.00000000E+00

-Cartesian components of stress tensor (GPa)         [Pressure= -4.2522E+02 GPa]
- sigma(1 1)=  4.25911796E+02  sigma(3 2)=  0.00000000E+00
- sigma(2 2)=  4.25911796E+02  sigma(3 1)=  0.00000000E+00
- sigma(3 3)=  4.23846789E+02  sigma(2 1)=  0.00000000E+00

== END DATASET(S) ==============================================================

 -outvars: echo values of variables after computation  --------
            acell      7.7624316804E+00  7.7624316804E+00  7.7624316804E+00 Bohr
              amu      1.18710000E+02  7.89600000E+01  6.53900000E+01
           diemac      1.20000000E+01
             ecut      2.25000000E+01 Hartree
           etotal     -1.2540175185E+03
            fcart     -0.0000000000E+00 -0.0000000000E+00 -1.3758741129E-02
                      -0.0000000000E+00 -0.0000000000E+00 -2.1619887162E-03
                      -0.0000000000E+00 -0.0000000000E+00  1.2140876193E-02
                      -0.0000000000E+00 -0.0000000000E+00 -1.6603512931E-02
                      -0.0000000000E+00 -0.0000000000E+00  4.1088240596E-04
                      -0.0000000000E+00 -0.0000000000E+00  2.0902367185E-02
                      -0.0000000000E+00 -0.0000000000E+00  1.1485894252E-02
                      -0.0000000000E+00 -0.0000000000E+00 -8.7967558384E-03
                      -0.0000000000E+00 -0.0000000000E+00 -1.8095107107E-03
                      -0.0000000000E+00 -0.0000000000E+00 -1.8095107107E-03
-          fftalg         112
             iscf          17
              ixc          11
              kpt      8.33333333E-02  8.33333333E-02  5.00000000E-01
                       2.50000000E-01  8.33333333E-02  5.00000000E-01
                       4.16666667E-01  8.33333333E-02  5.00000000E-01
                       2.50000000E-01  2.50000000E-01  5.00000000E-01
                       4.16666667E-01  2.50000000E-01  5.00000000E-01
                       4.16666667E-01  4.16666667E-01  5.00000000E-01
         kptrlatt        6    0    0      0    6    0      0    0    1
          kptrlen      4.65745901E+01
P           mkmem           1
            natom          10
            nband          83
            ngfft          36      36     180
             nkpt           6
            nstep         150
             nsym           8
           ntypat           3
              occ      2.000000  2.000000  2.000000  2.000000  2.000000  2.000000
                       2.000000  2.000000  2.000000  2.000000  2.000000  2.000000
                       2.000000  2.000000  2.000000  2.000000  2.000000  2.000000
                       2.000000  2.000000  2.000000  2.000000  2.000000  2.000000
                       2.000000  2.000000  2.000000  2.000000  2.000000  2.000000
                       2.000000  2.000000  2.000000  2.000000  2.000000  2.000000
                       2.000000  2.000000  2.000000  2.000000  2.000000  2.000000
                       2.000000  2.000000  2.000000  2.000000  2.000000  2.000000
                       2.000000  2.000000  2.000000  2.000000  2.000000  2.000000
                       2.000000  2.000000  2.000000  2.000000  2.000000  2.000000
                       2.000000  2.000000  2.000000  2.000000  2.000000  2.000000
                       2.000000  2.000000  2.000000  2.000000  2.000000  2.000000
                       2.000000  2.000000  2.000000  2.000000  2.000000  2.000000
                       2.000000  2.000000  2.000000  0.000000  0.000000
           prtcif           1
            prtwf           0
            rprim      1.0000000000E+00  0.0000000000E+00  0.0000000000E+00
                       0.0000000000E+00  1.0000000000E+00  0.0000000000E+00
                       0.0000000000E+00  0.0000000000E+00  5.1025955632E+00
           shiftk      5.00000000E-01  5.00000000E-01  5.00000000E-01
          spgroup          99
           strten      1.4476450148E-02  1.4476450148E-02  1.4406261955E-02
                       0.0000000000E+00  0.0000000000E+00  0.0000000000E+00
           symrel      1  0  0   0  1  0   0  0  1       1  0  0   0 -1  0   0  0  1
                      -1  0  0   0 -1  0   0  0  1      -1  0  0   0  1  0   0  0  1
                       0  1  0   1  0  0   0  0  1       0  1  0  -1  0  0   0  0  1
                       0 -1  0  -1  0  0   0  0  1       0 -1  0   1  0  0   0  0  1
            tnons      0.0000000  0.0000000  0.0000000     0.0000000 -0.0000000  0.0000000
                      -0.0000000 -0.0000000  0.0000000    -0.0000000  0.0000000  0.0000000
                       0.5000000  0.5000000  0.0000000     0.5000000  0.5000000  0.0000000
                       0.5000000  0.5000000  0.0000000     0.5000000  0.5000000  0.0000000
           toldfe      1.00000000E-07 Hartree
            typat      1  1  1  2  2  2  2  2  3  3
           vdw_xc           5
              wtk        0.11111    0.22222    0.22222    0.11111    0.22222    0.11111
           xangst      2.0538509643E+00  0.0000000000E+00  4.6664585258E+00
                       0.0000000000E+00  2.0538509643E+00  7.4160884693E+00
                       2.0538509643E+00  0.0000000000E+00  1.0102188830E+01
                       0.0000000000E+00  2.0538509643E+00  4.6982337974E+00
                       2.0538509643E+00  0.0000000000E+00  7.3843341577E+00
                       0.0000000000E+00  2.0538509643E+00  1.0133964101E+01
                       2.0538509643E+00  0.0000000000E+00  1.3303463595E+01
                       0.0000000000E+00  2.0538509643E+00  1.6293483109E+01
                       2.0538509643E+00  2.0538509643E+00  1.4798473352E+01
                       0.0000000000E+00  0.0000000000E+00  1.4798473352E+01
            xcart      3.8812158402E+00  0.0000000000E+00  8.8183286243E+00
                       0.0000000000E+00  3.8812158402E+00  1.4014376184E+01
                       3.8812158402E+00  0.0000000000E+00  1.9090370231E+01
                       0.0000000000E+00  3.8812158402E+00  8.8783751853E+00
                       3.8812158402E+00  0.0000000000E+00  1.3954369232E+01
                       0.0000000000E+00  3.8812158402E+00  1.9150416792E+01
                       3.8812158402E+00  0.0000000000E+00  2.5139902814E+01
                       0.0000000000E+00  3.8812158402E+00  3.0790220828E+01
                       3.8812158402E+00  3.8812158402E+00  2.7965061821E+01
                       0.0000000000E+00  0.0000000000E+00  2.7965061821E+01
             xred      5.0000000000E-01  0.0000000000E+00  2.2263700000E-01
                       0.0000000000E+00  5.0000000000E-01  3.5382200000E-01
                       5.0000000000E-01  0.0000000000E+00  4.8197600000E-01
                       0.0000000000E+00  5.0000000000E-01  2.2415300000E-01
                       5.0000000000E-01  0.0000000000E+00  3.5230700000E-01
                       0.0000000000E+00  5.0000000000E-01  4.8349200000E-01
                       5.0000000000E-01  0.0000000000E+00  6.3470900000E-01
                       0.0000000000E+00  5.0000000000E-01  7.7736300000E-01
                       5.0000000000E-01  5.0000000000E-01  7.0603600000E-01
                       0.0000000000E+00  0.0000000000E+00  7.0603600000E-01
            znucl       50.00000   34.00000   30.00000

- Timing analysis has been suppressed with timopt=0

 Suggested references for the acknowledgment of ABINIT usage.

 Calculation completed.
.Delivered   0 WARNINGs and   0 COMMENTs to log file.