.Version 9.2.2 of ABINIT

 ABINIT is a project of the Universite Catholique de Louvain,
 Corning Inc. and other collaborators, see ~abinit/doc/developers/contributors.txt .
 acknowledgments of the ABINIT effort.

.Starting date : Sat 16 Mar 2024.
- ( at 17h41 )

- The starting date is more than 3 years after the initial release
- of this version of ABINIT, namely Nov 2020.
- This version of ABINIT is not supported anymore.
- Action: please, switch to a more recent version of ABINIT.

 === Build Information ===
  Version       : 9.2.2
  Build target  : x86_64_linux_gnu9.3
  Build date    : 20210501

 === Optimizations ===
  Debug level        : basic
  Optimization level : standard
  Architecture       : unknown_unknown

 === Multicore ===
  Parallel build : yes
  Parallel I/O   : yes
  openMP support :
  GPU support    :

 === Connectors / Fallbacks ===
  LINALG flavor  : netlib
  FFT flavor     : goedecker
  HDF5           : yes
  NetCDF         : yes
  NetCDF Fortran : yes
  Wannier90      : no

 === Experimental features ===
  Exports             :
  GW double-precision :

 Default optimizations:
   -O2 -mtune=native -march=native

 Optimizations for 43_ptgroups:
   -O0

 CPP options activated during the build:

                    CC_GNU                    FC_GNU HAVE_FC_ALLOCATABLE_DT...

             HAVE_FC_ASYNC         HAVE_FC_BACKTRACE  HAVE_FC_COMMAND_ARGUMENT

      HAVE_FC_COMMAND_LINE        HAVE_FC_CONTIGUOUS           HAVE_FC_CPUTIME

              HAVE_FC_EXIT             HAVE_FC_FLUSH             HAVE_FC_GAMMA

            HAVE_FC_GETENV   HAVE_FC_IEEE_ARITHMETIC   HAVE_FC_IEEE_EXCEPTIONS

          HAVE_FC_INT_QUAD             HAVE_FC_IOMSG     HAVE_FC_ISO_C_BINDING

  HAVE_FC_ISO_FORTRAN_2008        HAVE_FC_LONG_LINES        HAVE_FC_MOVE_ALLOC

  HAVE_FC_ON_THE_FLY_SHAPE           HAVE_FC_PRIVATE         HAVE_FC_PROTECTED

           HAVE_FC_SHIFTLR         HAVE_FC_STREAM_IO            HAVE_FC_SYSTEM

          HAVE_FORTRAN2003                 HAVE_HDF5        HAVE_LIBPAW_ABINIT

                 HAVE_MPI2       HAVE_MPI_IALLGATHER       HAVE_MPI_IALLREDUCE

        HAVE_MPI_IALLTOALL       HAVE_MPI_IALLTOALLV           HAVE_MPI_IBCAST

         HAVE_MPI_IGATHERV        HAVE_MPI_INTEGER16               HAVE_MPI_IO

 HAVE_MPI_TYPE_CREATE_S...               HAVE_NETCDF       HAVE_NETCDF_FORTRAN

             HAVE_OS_LINUX         HAVE_TIMER_ABINIT

- input  file    -> Cs2TiI6.in
- output file    -> Cs2TiI6.out
- root for input  files -> Cs2TiI6i
- root for output files -> Cs2TiI6o

-instrng: 42 lines of input have been read from file Cs2TiI6.in

 Please give name of formatted atomic psp file (and finish with a newline character)
 For atom type 1, psp file is ../../../Psps_for_tests/ATOMICDATA_NC/Sn.psp8

 Please give name of formatted atomic psp file (and finish with a newline character)
 For atom type 2, psp file is ../../../Psps_for_tests/ATOMICDATA_NC/Se.psp8

 Please give name of formatted atomic psp file (and finish with a newline character)
 For atom type 3, psp file is ../../../Psps_for_tests/ATOMICDATA_NC/Zn.psp8
  read the values zionpsp= 14.0 , pspcod=   8 , lmax=   2
  read the values zionpsp= 16.0 , pspcod=   8 , lmax=   2
  read the values zionpsp= 20.0 , pspcod=   8 , lmax=   2

 inpspheads: deduce mpsang = 3, n1xccc = 2501.

 invars1m : enter jdtset= 0

 symlatt: the Bravais lattice is tP (primitive tetragonal)
  xred   is defined in input file
 ingeo: takes atomic coordinates from input array xred

--- !WARNING
src_file: m_ingeo.F90
src_line: 887
message: |
    The tolerance on symmetries =   1.000E-05 is bigger than 1.0e-8.
    In order to avoid spurious effects, the atomic coordinates have been
    symmetrized before storing them in the dataset internal variable.
    So, do not be surprised by the fact that your input variables (xcart, xred, ...)
    do not correspond to the ones echoed by ABINIT, the latter being used to do the calculations.
    In order to avoid this symmetrization (e.g. for specific debugging/development), decrease tolsym to 1.0e-8 or lower.
...

 symlatt: the Bravais lattice is tP (primitive tetragonal)

 symlatt: the Bravais lattice is tP (primitive tetragonal)
 symspgr: spgroup=  99  P4 m m   (=C4v^1)
 symspgr: optical characteristics = uniaxial
 Optical axis (in reduced coordinates, real space ) :   0   0   1
 invars2: take the default value of fband=  1.25000000E-01
 For input ecut=  2.250000E+01 best grid ngfft=      36      36     180
       max ecut=  2.547868E+01

 ==== FFT mesh ====
  FFT mesh divisions ........................    36   36  180
  Augmented FFT divisions ...................    37   37  180
  FFT algorithm .............................   112
  FFT cache size ............................    16
 getmpw: optimal value of mpw= 12212

 Symmetries : space group P4 m m (# 99); Bravais tP (primitive tetrag.)

 getdim_nloc : deduce lmnmax  =  18, lnmax  =   6,
                      lmnmaxso=  18, lnmaxso=   6.
     intxc =       0    ionmov =       0      iscf =      17    lmnmax =       6
     lnmax =       6     mgfft =     180  mpssoang =       3    mqgrid =    8458
     natom =      10  nloc_mem =       1    nspden =       1   nspinor =       1
    nsppol =       1      nsym =       8    n1xccc =    2501    ntypat =       3
    occopt =       1   xclevel =       2
-    mband =          83        mffmem =           1         mkmem =           1
       mpw =       12212          nfft =      233280          nkpt =           6
  Rough estimation (10% accuracy) of disk space for files :

 The job will continue.
------------- Echo of variables that govern the present computation ------------
-
- outvars: echo of selected default values
-   iomode0 =  0 , fftalg0 =112 , wfoptalg0 =  0
-
- outvars: echo of global parameters not present in the input file
-  max_nthreads =    0
-
 -outvars: echo values of preprocessed input variables --------

 These variables are accessible in NetCDF format (Cs2TiI6o_OUT.nc)

            acell      7.7624316804E+00  7.7624316804E+00  7.7624316804E+00 Bohr
              amu      1.18710000E+02  7.89600000E+01  6.53900000E+01
           diemac      1.20000000E+01
             ecut      2.25000000E+01 Hartree
-          fftalg         112
             iscf          17
              ixc          11
              kpt      8.33333333E-02  8.33333333E-02  5.00000000E-01
                       2.50000000E-01  8.33333333E-02  5.00000000E-01
                       4.16666667E-01  8.33333333E-02  5.00000000E-01
                       2.50000000E-01  2.50000000E-01  5.00000000E-01
                       4.16666667E-01  2.50000000E-01  5.00000000E-01
                       4.16666667E-01  4.16666667E-01  5.00000000E-01
         kptrlatt        6    0    0      0    6    0      0    0    1
          kptrlen      4.65745901E+01
P           mkmem           1
            natom          10
            nband          83
            ngfft          36      36     180
             nkpt           6
            nstep         150
             nsym           8
           ntypat           3
              occ      2.000000  2.000000  2.000000  2.000000  2.000000  2.000000
                       2.000000  2.000000  2.000000  2.000000  2.000000  2.000000
                       2.000000  2.000000  2.000000  2.000000  2.000000  2.000000
                       2.000000  2.000000  2.000000  2.000000  2.000000  2.000000
                       2.000000  2.000000  2.000000  2.000000  2.000000  2.000000
                       2.000000  2.000000  2.000000  2.000000  2.000000  2.000000
                       2.000000  2.000000  2.000000  2.000000  2.000000  2.000000
                       2.000000  2.000000  2.000000  2.000000  2.000000  2.000000
                       2.000000  2.000000  2.000000  2.000000  2.000000  2.000000
                       2.000000  2.000000  2.000000  2.000000  2.000000  2.000000
                       2.000000  2.000000  2.000000  2.000000  2.000000  2.000000
                       2.000000  2.000000  2.000000  2.000000  2.000000  2.000000
                       2.000000  2.000000  2.000000  2.000000  2.000000  2.000000
                       2.000000  2.000000  2.000000  0.000000  0.000000
           prtcif           1
            prtwf           0
            rprim      1.0000000000E+00  0.0000000000E+00  0.0000000000E+00
                       0.0000000000E+00  1.0000000000E+00  0.0000000000E+00
                       0.0000000000E+00  0.0000000000E+00  5.1025955632E+00
           shiftk      5.00000000E-01  5.00000000E-01  5.00000000E-01
          spgroup          99
           symrel      1  0  0   0  1  0   0  0  1       1  0  0   0 -1  0   0  0  1
                      -1  0  0   0 -1  0   0  0  1      -1  0  0   0  1  0   0  0  1
                       0  1  0   1  0  0   0  0  1       0  1  0  -1  0  0   0  0  1
                       0 -1  0  -1  0  0   0  0  1       0 -1  0   1  0  0   0  0  1
            tnons      0.0000000  0.0000000  0.0000000     0.0000000 -0.0000000  0.0000000
                      -0.0000000 -0.0000000  0.0000000    -0.0000000  0.0000000  0.0000000
                       0.5000000  0.5000000  0.0000000     0.5000000  0.5000000  0.0000000
                       0.5000000  0.5000000  0.0000000     0.5000000  0.5000000  0.0000000
           toldfe      1.00000000E-07 Hartree
            typat      1  1  1  2  2  2  2  2  3  3
           vdw_xc           5
              wtk        0.11111    0.22222    0.22222    0.11111    0.22222    0.11111
           xangst      2.0538509643E+00  0.0000000000E+00  4.6664585258E+00
                       0.0000000000E+00  2.0538509643E+00  7.4160884693E+00
                       2.0538509643E+00  0.0000000000E+00  1.0102188830E+01
                       0.0000000000E+00  2.0538509643E+00  4.6982337974E+00
                       2.0538509643E+00  0.0000000000E+00  7.3843341577E+00
                       0.0000000000E+00  2.0538509643E+00  1.0133964101E+01
                       2.0538509643E+00  0.0000000000E+00  1.3303463595E+01
                       0.0000000000E+00  2.0538509643E+00  1.6293483109E+01
                       2.0538509643E+00  2.0538509643E+00  1.4798473352E+01
                       0.0000000000E+00  0.0000000000E+00  1.4798473352E+01
            xcart      3.8812158402E+00  0.0000000000E+00  8.8183286243E+00
                       0.0000000000E+00  3.8812158402E+00  1.4014376184E+01
                       3.8812158402E+00  0.0000000000E+00  1.9090370231E+01
                       0.0000000000E+00  3.8812158402E+00  8.8783751853E+00
                       3.8812158402E+00  0.0000000000E+00  1.3954369232E+01
                       0.0000000000E+00  3.8812158402E+00  1.9150416792E+01
                       3.8812158402E+00  0.0000000000E+00  2.5139902814E+01
                       0.0000000000E+00  3.8812158402E+00  3.0790220828E+01
                       3.8812158402E+00  3.8812158402E+00  2.7965061821E+01
                       0.0000000000E+00  0.0000000000E+00  2.7965061821E+01
             xred      5.0000000000E-01  0.0000000000E+00  2.2263700000E-01
[...]
   1.55E-13  5.93E-13  7.17E-13  1.88E-13  1.69E-13  7.96E-13  9.91E-13  1.04E-13
   5.06E-13  5.97E-13  7.81E-13  1.41E-12  1.26E-12  1.93E-13  3.09E-13  4.95E-13
   3.20E-13  4.56E-07  1.50E-05
   0.4167  0.2500  0.5000    1  1.50607E-06 kpt; spin; max resid(k); each band:
   1.49E-14  1.61E-14  9.59E-15  9.73E-15  9.22E-15  2.25E-14  2.21E-14  9.40E-15
   1.40E-12  9.06E-13  8.84E-13  1.09E-12  4.36E-13  8.50E-13  7.85E-13  2.88E-13
   9.25E-13  1.39E-12  1.25E-13  1.45E-13  1.64E-13  6.64E-14  2.79E-14  1.23E-13
   1.10E-13  2.52E-13  1.61E-13  2.06E-13  1.50E-13  2.16E-13  2.02E-13  1.97E-13
   1.66E-13  3.26E-14  2.17E-14  1.68E-14  1.47E-14  7.71E-14  1.75E-14  3.30E-14
   2.88E-14  3.78E-14  1.41E-15  6.18E-15  1.09E-14  1.40E-14  1.17E-14  1.26E-14
   2.23E-13  3.21E-13  5.78E-14  3.66E-14  5.77E-14  1.84E-14  1.71E-14  1.88E-14
   3.10E-14  6.48E-14  6.04E-14  2.32E-14  2.54E-14  3.35E-14  9.19E-14  2.80E-13
   6.78E-14  3.83E-13  2.74E-13  1.40E-13  9.16E-14  1.13E-12  8.22E-13  1.62E-13
   1.33E-12  3.73E-13  1.13E-12  1.09E-12  9.93E-13  2.36E-13  2.83E-13  5.45E-13
   2.16E-13  1.41E-11  1.51E-06
   0.4167  0.4167  0.5000    1  1.61012E-07 kpt; spin; max resid(k); each band:
   1.49E-14  1.62E-14  9.79E-15  9.19E-15  9.59E-15  9.36E-15  2.25E-14  2.26E-14
   1.07E-12  1.39E-12  3.26E-13  4.72E-14  6.28E-13  1.57E-14  5.21E-13  1.06E-12
   9.70E-13  7.28E-13  4.39E-14  8.20E-14  1.55E-13  9.44E-14  3.10E-15  1.45E-13
   6.91E-14  2.93E-13  2.66E-13  2.35E-13  6.89E-14  2.57E-13  2.57E-13  2.62E-13
   2.42E-13  3.58E-14  5.02E-15  1.62E-14  2.39E-14  7.98E-14  1.34E-14  3.83E-14
   1.66E-15  3.77E-14  1.47E-15  7.82E-15  4.59E-16  2.26E-14  1.13E-14  1.16E-14
   9.40E-14  1.50E-13  4.83E-14  4.18E-14  5.07E-14  1.55E-14  1.24E-14  1.60E-14
   1.32E-14  7.20E-14  2.20E-14  1.50E-14  5.20E-14  3.14E-14  9.07E-14  2.44E-13
   4.38E-14  5.11E-13  3.30E-13  4.90E-13  4.53E-13  2.33E-13  1.22E-13  1.23E-12
   1.08E-12  9.26E-13  7.77E-13  1.03E-12  7.28E-13  6.20E-13  1.42E-13  9.37E-13
   1.39E-13  6.80E-12  1.61E-07
 prteigrs : about to open file Cs2TiI6o_EIG
 Fermi (or HOMO) energy (hartree) =   0.08893   Average Vxc (hartree)=  -0.27665
 Eigenvalues (hartree) for nkpt=   6  k points:
 kpt#   1, nband= 83, wtk=  0.11111, kpt=  0.0833  0.0833  0.5000 (reduced coord)
  -4.78656   -4.78655   -3.02394   -3.02374   -3.02183   -3.02171   -3.02155   -3.02141
  -1.73773   -1.73750   -1.73690   -1.73662   -1.73608   -1.73189   -1.73188   -1.72963
  -1.72843   -1.72776   -1.72135   -1.72020   -1.71995   -1.71880   -1.71838   -1.69864
  -1.69851   -1.69794   -1.69517   -1.69503   -1.69469   -1.69364   -1.69236   -1.69117
  -1.69071   -0.71337   -0.71185   -0.71104   -0.71097   -0.71076   -0.71049   -0.70964
  -0.70959   -0.70944   -0.70921   -0.70387   -0.70376   -0.70372   -0.70190   -0.70184
  -0.45930   -0.45554   -0.43366   -0.41669   -0.39686   -0.24975   -0.24794   -0.24694
  -0.24650   -0.24600   -0.23470   -0.23419   -0.23312   -0.22901   -0.22664   -0.16930
  -0.16721   -0.13729   -0.10973   -0.09016   -0.07180   -0.06856   -0.06416   -0.04254
  -0.03390   -0.01142   -0.00867   -0.00752    0.00417    0.00567    0.01400    0.03321
   0.04494    0.10186    0.11959
 kpt#   2, nband= 83, wtk=  0.22222, kpt=  0.2500  0.0833  0.5000 (reduced coord)
  -4.78655   -4.78654   -3.02319   -3.02189   -3.02151   -3.02134   -3.02118   -3.02086
  -1.73618   -1.73541   -1.73505   -1.73290   -1.73164   -1.73115   -1.72924   -1.72798
  -1.72702   -1.72596   -1.72023   -1.71855   -1.71787   -1.71567   -1.71445   -1.69756
  -1.69565   -1.69461   -1.69394   -1.69365   -1.69278   -1.69135   -1.69053   -1.68896
  -1.68845   -0.71279   -0.71137   -0.71100   -0.71075   -0.71016   -0.70999   -0.70959
  -0.70930   -0.70886   -0.70870   -0.70381   -0.70336   -0.70269   -0.70192   -0.70161
  -0.45245   -0.44581   -0.43282   -0.40959   -0.39642   -0.24873   -0.24408   -0.24372
  -0.24327   -0.24223   -0.23587   -0.23206   -0.23166   -0.22957   -0.22853   -0.19445
  -0.19288   -0.15348   -0.13608   -0.11736   -0.08542   -0.06679   -0.05196   -0.03304
  -0.02418   -0.01405   -0.00752   -0.00367    0.00136    0.00196    0.03998    0.05769
   0.07364    0.12191    0.13063
 kpt#   3, nband= 83, wtk=  0.22222, kpt=  0.4167  0.0833  0.5000 (reduced coord)
  -4.78655   -4.78655   -3.02298   -3.02236   -3.02204   -3.02147   -3.02144   -3.02125
  -1.73609   -1.73545   -1.73499   -1.73461   -1.73336   -1.73118   -1.72965   -1.72902
  -1.72858   -1.72708   -1.71931   -1.71898   -1.71838   -1.71823   -1.71589   -1.69812
  -1.69554   -1.69519   -1.69517   -1.69444   -1.69397   -1.69150   -1.69110   -1.69079
  -1.69010   -0.71253   -0.71120   -0.71104   -0.71086   -0.71059   -0.71008   -0.70971
  -0.70944   -0.70932   -0.70873   -0.70388   -0.70336   -0.70290   -0.70208   -0.70176
  -0.44310   -0.43435   -0.43168   -0.40221   -0.39896   -0.24560   -0.24167   -0.24078
  -0.23955   -0.23884   -0.23720   -0.23565   -0.23519   -0.23374   -0.23037   -0.21966
  -0.20957   -0.18728   -0.14909   -0.14880   -0.06701   -0.03989   -0.03660   -0.03010
  -0.02936   -0.01746   -0.01013   -0.00456   -0.00350    0.01362    0.06581    0.07470
   0.08893    0.11482    0.11953
 kpt#   4, nband= 83, wtk=  0.11111, kpt=  0.2500  0.2500  0.5000 (reduced coord)
  -4.78655   -4.78654   -3.02247   -3.02227   -3.02183   -3.02172   -3.02098   -3.02084
  -1.73514   -1.73484   -1.73366   -1.73339   -1.73186   -1.73040   -1.72906   -1.72853
  -1.72818   -1.72743   -1.71926   -1.71843   -1.71733   -1.71706   -1.71411   -1.69742
  -1.69525   -1.69519   -1.69420   -1.69414   -1.69310   -1.69081   -1.69043   -1.68994
  -1.68920   -0.71258   -0.71110   -0.71099   -0.71087   -0.71076   -0.70972   -0.70947
  -0.70942   -0.70934   -0.70834   -0.70409   -0.70302   -0.70278   -0.70185   -0.70174
  -0.44650   -0.43674   -0.43133   -0.40276   -0.39421   -0.25165   -0.24272   -0.24110
  -0.24099   -0.23883   -0.23677   -0.23329   -0.23232   -0.22991   -0.22946   -0.19733
  -0.18988   -0.15920   -0.13779   -0.11428   -0.10708   -0.09101   -0.07115   -0.06877
  -0.03890   -0.02863   -0.02776   -0.01907   -0.00813   -0.00125    0.04656    0.06134
   0.07597    0.14039    0.14448
 kpt#   5, nband= 83, wtk=  0.22222, kpt=  0.4167  0.2500  0.5000 (reduced coord)
  -4.78656   -4.78655   -3.02354   -3.02268   -3.02204   -3.02165   -3.02147   -3.02145
  -1.73663   -1.73594   -1.73573   -1.73522   -1.73406   -1.73092   -1.73002   -1.72968
  -1.72958   -1.72861   -1.72024   -1.71961   -1.71922   -1.71783   -1.71652   -1.69860
  -1.69672   -1.69655   -1.69561   -1.69536   -1.69364   -1.69310   -1.69146   -1.69102
  -1.69066   -0.71252   -0.71130   -0.71126   -0.71109   -0.71100   -0.70990   -0.70987
  -0.70975   -0.70962   -0.70857   -0.70448   -0.70308   -0.70290   -0.70218   -0.70196
  -0.43878   -0.43138   -0.42469   -0.39617   -0.39298   -0.25036   -0.24349   -0.24127
  -0.24012   -0.23839   -0.23519   -0.23494   -0.23414   -0.23222   -0.23010   -0.20671
  -0.19401   -0.17452   -0.14402   -0.13939   -0.09933   -0.07470   -0.06683   -0.05802
  -0.05692   -0.04478   -0.03829   -0.03490   -0.02897   -0.02150    0.01671    0.02036
   0.06455    0.13297    0.16277
 kpt#   6, nband= 83, wtk=  0.11111, kpt=  0.4167  0.4167  0.5000 (reduced coord)
  -4.78656   -4.78655   -3.02311   -3.02290   -3.02238   -3.02186   -3.02172   -3.02107
  -1.73641   -1.73637   -1.73500   -1.73473   -1.73425   -1.73128   -1.73107   -1.73061
  -1.72922   -1.72912   -1.72002   -1.71905   -1.71903   -1.71818   -1.71733   -1.69897
  -1.69779   -1.69721   -1.69709   -1.69554   -1.69402   -1.69346   -1.69086   -1.69005
  -1.68958   -0.71229   -0.71173   -0.71139   -0.71131   -0.71075   -0.71030   -0.70980
  -0.70970   -0.70967   -0.70841   -0.70504   -0.70284   -0.70275   -0.70222   -0.70209
  -0.43400   -0.42846   -0.41678   -0.38979   -0.38638   -0.25234   -0.24878   -0.23984
  -0.23959   -0.23627   -0.23328   -0.23223   -0.23221   -0.23179   -0.23161   -0.18870
  -0.17155   -0.15337   -0.14166   -0.13837   -0.13418   -0.10279   -0.09549   -0.08357
  -0.07593   -0.06412   -0.06281   -0.05582   -0.04771   -0.03602   -0.03458   -0.00374
   0.06337    0.13844    0.16526
 Total charge density [el/Bohr^3]
      Maximum=    4.0916E+00  at reduced coord.    0.9444    0.9722    0.7000
 Next maximum=    4.0916E+00  at reduced coord.    0.0556    0.9722    0.7000
      Minimum=    8.2967E-06  at reduced coord.    0.3333    0.0833    0.9944
 Next minimum=    8.2967E-06  at reduced coord.    0.6667    0.0833    0.9944
   Integrated=    1.6200E+02

 Cartesian components of stress tensor (hartree/bohr^3)
  sigma(1 1)=  1.44764501E-02  sigma(3 2)=  0.00000000E+00
  sigma(2 2)=  1.44764501E-02  sigma(3 1)=  0.00000000E+00
  sigma(3 3)=  1.44062620E-02  sigma(2 1)=  0.00000000E+00

-Cartesian components of stress tensor (GPa)         [Pressure= -4.2522E+02 GPa]
- sigma(1 1)=  4.25911796E+02  sigma(3 2)=  0.00000000E+00
- sigma(2 2)=  4.25911796E+02  sigma(3 1)=  0.00000000E+00
- sigma(3 3)=  4.23846789E+02  sigma(2 1)=  0.00000000E+00

== END DATASET(S) ==============================================================

 -outvars: echo values of variables after computation  --------

 These variables are accessible in NetCDF format (Cs2TiI6o_OUT.nc)

            acell      7.7624316804E+00  7.7624316804E+00  7.7624316804E+00 Bohr
              amu      1.18710000E+02  7.89600000E+01  6.53900000E+01
           diemac      1.20000000E+01
             ecut      2.25000000E+01 Hartree
           etotal     -1.2540175185E+03
            fcart     -0.0000000000E+00 -0.0000000000E+00 -1.3758741129E-02
                      -0.0000000000E+00 -0.0000000000E+00 -2.1619887162E-03
                      -0.0000000000E+00 -0.0000000000E+00  1.2140876193E-02
                      -0.0000000000E+00 -0.0000000000E+00 -1.6603512931E-02
                      -0.0000000000E+00 -0.0000000000E+00  4.1088240596E-04
                      -0.0000000000E+00 -0.0000000000E+00  2.0902367185E-02
                      -0.0000000000E+00 -0.0000000000E+00  1.1485894252E-02
                      -0.0000000000E+00 -0.0000000000E+00 -8.7967558384E-03
                      -0.0000000000E+00 -0.0000000000E+00 -1.8095107107E-03
                      -0.0000000000E+00 -0.0000000000E+00 -1.8095107107E-03
-          fftalg         112
             iscf          17
              ixc          11
              kpt      8.33333333E-02  8.33333333E-02  5.00000000E-01
                       2.50000000E-01  8.33333333E-02  5.00000000E-01
                       4.16666667E-01  8.33333333E-02  5.00000000E-01
                       2.50000000E-01  2.50000000E-01  5.00000000E-01
                       4.16666667E-01  2.50000000E-01  5.00000000E-01
                       4.16666667E-01  4.16666667E-01  5.00000000E-01
         kptrlatt        6    0    0      0    6    0      0    0    1
          kptrlen      4.65745901E+01
P           mkmem           1
            natom          10
            nband          83
            ngfft          36      36     180
             nkpt           6
            nstep         150
             nsym           8
           ntypat           3
              occ      2.000000  2.000000  2.000000  2.000000  2.000000  2.000000
                       2.000000  2.000000  2.000000  2.000000  2.000000  2.000000
                       2.000000  2.000000  2.000000  2.000000  2.000000  2.000000
                       2.000000  2.000000  2.000000  2.000000  2.000000  2.000000
                       2.000000  2.000000  2.000000  2.000000  2.000000  2.000000
                       2.000000  2.000000  2.000000  2.000000  2.000000  2.000000
                       2.000000  2.000000  2.000000  2.000000  2.000000  2.000000
                       2.000000  2.000000  2.000000  2.000000  2.000000  2.000000
                       2.000000  2.000000  2.000000  2.000000  2.000000  2.000000
                       2.000000  2.000000  2.000000  2.000000  2.000000  2.000000
                       2.000000  2.000000  2.000000  2.000000  2.000000  2.000000
                       2.000000  2.000000  2.000000  2.000000  2.000000  2.000000
                       2.000000  2.000000  2.000000  2.000000  2.000000  2.000000
                       2.000000  2.000000  2.000000  0.000000  0.000000
           prtcif           1
            prtwf           0
            rprim      1.0000000000E+00  0.0000000000E+00  0.0000000000E+00
                       0.0000000000E+00  1.0000000000E+00  0.0000000000E+00
                       0.0000000000E+00  0.0000000000E+00  5.1025955632E+00
           shiftk      5.00000000E-01  5.00000000E-01  5.00000000E-01
          spgroup          99
           strten      1.4476450148E-02  1.4476450148E-02  1.4406261955E-02
                       0.0000000000E+00  0.0000000000E+00  0.0000000000E+00
           symrel      1  0  0   0  1  0   0  0  1       1  0  0   0 -1  0   0  0  1
                      -1  0  0   0 -1  0   0  0  1      -1  0  0   0  1  0   0  0  1
                       0  1  0   1  0  0   0  0  1       0  1  0  -1  0  0   0  0  1
                       0 -1  0  -1  0  0   0  0  1       0 -1  0   1  0  0   0  0  1
            tnons      0.0000000  0.0000000  0.0000000     0.0000000 -0.0000000  0.0000000
                      -0.0000000 -0.0000000  0.0000000    -0.0000000  0.0000000  0.0000000
                       0.5000000  0.5000000  0.0000000     0.5000000  0.5000000  0.0000000
                       0.5000000  0.5000000  0.0000000     0.5000000  0.5000000  0.0000000
           toldfe      1.00000000E-07 Hartree
            typat      1  1  1  2  2  2  2  2  3  3
           vdw_xc           5
              wtk        0.11111    0.22222    0.22222    0.11111    0.22222    0.11111
           xangst      2.0538509643E+00  0.0000000000E+00  4.6664585258E+00
                       0.0000000000E+00  2.0538509643E+00  7.4160884693E+00
                       2.0538509643E+00  0.0000000000E+00  1.0102188830E+01
                       0.0000000000E+00  2.0538509643E+00  4.6982337974E+00
                       2.0538509643E+00  0.0000000000E+00  7.3843341577E+00
                       0.0000000000E+00  2.0538509643E+00  1.0133964101E+01
                       2.0538509643E+00  0.0000000000E+00  1.3303463595E+01
                       0.0000000000E+00  2.0538509643E+00  1.6293483109E+01
                       2.0538509643E+00  2.0538509643E+00  1.4798473352E+01
                       0.0000000000E+00  0.0000000000E+00  1.4798473352E+01
            xcart      3.8812158402E+00  0.0000000000E+00  8.8183286243E+00
                       0.0000000000E+00  3.8812158402E+00  1.4014376184E+01
                       3.8812158402E+00  0.0000000000E+00  1.9090370231E+01
                       0.0000000000E+00  3.8812158402E+00  8.8783751853E+00
                       3.8812158402E+00  0.0000000000E+00  1.3954369232E+01
                       0.0000000000E+00  3.8812158402E+00  1.9150416792E+01
                       3.8812158402E+00  0.0000000000E+00  2.5139902814E+01
                       0.0000000000E+00  3.8812158402E+00  3.0790220828E+01
                       3.8812158402E+00  3.8812158402E+00  2.7965061821E+01
                       0.0000000000E+00  0.0000000000E+00  2.7965061821E+01
             xred      5.0000000000E-01  0.0000000000E+00  2.2263700000E-01
                       0.0000000000E+00  5.0000000000E-01  3.5382200000E-01
                       5.0000000000E-01  0.0000000000E+00  4.8197600000E-01
                       0.0000000000E+00  5.0000000000E-01  2.2415300000E-01
                       5.0000000000E-01  0.0000000000E+00  3.5230700000E-01
                       0.0000000000E+00  5.0000000000E-01  4.8349200000E-01
                       5.0000000000E-01  0.0000000000E+00  6.3470900000E-01
                       0.0000000000E+00  5.0000000000E-01  7.7736300000E-01
                       5.0000000000E-01  5.0000000000E-01  7.0603600000E-01
                       0.0000000000E+00  0.0000000000E+00  7.0603600000E-01
            znucl       50.00000   34.00000   30.00000

 Suggested references for the acknowledgment of ABINIT usage.

 Calculation completed.
.Delivered   0 WARNINGs and   0 COMMENTs to log file.

--- !FinalSummary
program: abinit
version: 9.2.2
start_datetime: Sat Mar 16 17:41:42 2024
end_datetime: Sat Mar 16 17:47:52 2024
overall_cpu_time:        2219.5
overall_wall_time:        2219.5
exit_requested_by_user: no
timelimit: 0
pseudos:
    Sn  : c918e999fc214fef37654f9ff7d5f03d
    Se  : f801923bd422df98a30264e8ccc86374
    Zn  : 80c9b4d1484b64588a366a4998a7c40d
usepaw: 0
mpi_procs: 6
omp_threads: 1
num_warnings: 0
num_comments: 0
...