.Version 9.2.2 of ABINIT

 ABINIT is a project of the Universite Catholique de Louvain,
 Corning Inc. and other collaborators, see ~abinit/doc/developers/contributors.txt .
 acknowledgments of the ABINIT effort.

.Starting date : Thu 29 Feb 2024.
- ( at 08h21 )

- The starting date is more than 3 years after the initial release
- of this version of ABINIT, namely Nov 2020.
- This version of ABINIT is not supported anymore.
- Action: please, switch to a more recent version of ABINIT.
- input  file    -> Cs2TiI6.in
- output file    -> Cs2TiI6.out
- root for input  files -> Cs2TiI6i
- root for output files -> Cs2TiI6o

 Symmetries : space group P4 m m (# 99); Bravais tP (primitive tetrag.)
     intxc =       0    ionmov =       0      iscf =      17    lmnmax =       6
     lnmax =       6     mgfft =     256  mpssoang =       3    mqgrid =   12553
     natom =      18  nloc_mem =       1    nspden =       1   nspinor =       1
    nsppol =       1      nsym =       8    n1xccc =    2501    ntypat =       2
    occopt =       1   xclevel =       2
-    mband =         138        mffmem =           1         mkmem =           2
       mpw =       18104          nfft =      331776          nkpt =          10
  Rough estimation (10% accuracy) of disk space for files :

------------- Echo of variables that govern the present computation ------------
-
- outvars: echo of selected default values
-   iomode0 =  0 , fftalg0 =112 , wfoptalg0 =  0
-
- outvars: echo of global parameters not present in the input file
-  max_nthreads =    0
-
 -outvars: echo values of preprocessed input variables --------
            acell      7.7624316804E+00  7.7624316804E+00  7.7624316804E+00 Bohr
              amu      1.18710000E+02  7.89600000E+01
           diemac      1.20000000E+01
             ecut      2.25000000E+01 Hartree
-          fftalg         112
             iscf          17
              ixc          11
              kpt      6.25000000E-02  6.25000000E-02  5.00000000E-01
                       1.87500000E-01  6.25000000E-02  5.00000000E-01
                       3.12500000E-01  6.25000000E-02  5.00000000E-01
                       4.37500000E-01  6.25000000E-02  5.00000000E-01
                       1.87500000E-01  1.87500000E-01  5.00000000E-01
                       3.12500000E-01  1.87500000E-01  5.00000000E-01
                       4.37500000E-01  1.87500000E-01  5.00000000E-01
                       3.12500000E-01  3.12500000E-01  5.00000000E-01
                       4.37500000E-01  3.12500000E-01  5.00000000E-01
                       4.37500000E-01  4.37500000E-01  5.00000000E-01
         kptrlatt        8    0    0      0    8    0      0    0    1
          kptrlen      6.20994534E+01
P           mkmem           2
            natom          18
            nband         138
            ngfft          36      36     256
             nkpt          10
            nstep         150
             nsym           8
           ntypat           2
              occ      2.000000  2.000000  2.000000  2.000000  2.000000  2.000000
                       2.000000  2.000000  2.000000  2.000000  2.000000  2.000000
                       2.000000  2.000000  2.000000  2.000000  2.000000  2.000000
                       2.000000  2.000000  2.000000  2.000000  2.000000  2.000000
                       2.000000  2.000000  2.000000  2.000000  2.000000  2.000000
                       2.000000  2.000000  2.000000  2.000000  2.000000  2.000000
                       2.000000  2.000000  2.000000  2.000000  2.000000  2.000000
                       2.000000  2.000000  2.000000  2.000000  2.000000  2.000000
                       2.000000  2.000000  2.000000  2.000000  2.000000  2.000000
                       2.000000  2.000000  2.000000  2.000000  2.000000  2.000000
                       2.000000  2.000000  2.000000  2.000000  2.000000  2.000000
                       2.000000  2.000000  2.000000  2.000000  2.000000  2.000000
                       2.000000  2.000000  2.000000  2.000000  2.000000  2.000000
                       2.000000  2.000000  2.000000  2.000000  2.000000  2.000000
                       2.000000  2.000000  2.000000  2.000000  2.000000  2.000000
                       2.000000  2.000000  2.000000  2.000000  2.000000  2.000000
                       2.000000  2.000000  2.000000  2.000000  2.000000  2.000000
                       2.000000  2.000000  2.000000  2.000000  2.000000  2.000000
                       2.000000  2.000000  2.000000  2.000000  2.000000  2.000000
                       2.000000  2.000000  2.000000  2.000000  2.000000  2.000000
                       2.000000  2.000000  2.000000  2.000000  2.000000  2.000000
                       2.000000  2.000000  2.000000  2.000000  2.000000  2.000000
                       2.000000  2.000000  2.000000  0.000000  0.000000  0.000000
           prtcif           1
            rprim      1.0000000000E+00  0.0000000000E+00  0.0000000000E+00
                       0.0000000000E+00  1.0000000000E+00  0.0000000000E+00
                       0.0000000000E+00  0.0000000000E+00  7.5729970188E+00
           shiftk      5.00000000E-01  5.00000000E-01  5.00000000E-01
          spgroup          99
           symrel      1  0  0   0  1  0   0  0  1       1  0  0   0 -1  0   0  0  1
                      -1  0  0   0 -1  0   0  0  1      -1  0  0   0  1  0   0  0  1
                       0  1  0   1  0  0   0  0  1       0  1  0  -1  0  0   0  0  1
                       0 -1  0  -1  0  0   0  0  1       0 -1  0   1  0  0   0  0  1
            tnons      0.0000000  0.0000000  0.0000000     0.0000000  0.0000000  0.0000000
                      -0.0000000  0.0000000  0.0000000    -0.0000000  0.0000000  0.0000000
                       0.5000000  0.5000000  0.0000000     0.5000000  0.5000000  0.0000000
                       0.5000000  0.5000000  0.0000000     0.5000000  0.5000000  0.0000000
           toldfe      1.00000000E-06 Hartree
            typat      1  1  1  1  1  1  1  1  1  2  2  2  2  2  2  2  2  2
           vdw_xc           5
              wtk        0.06250    0.12500    0.12500    0.12500    0.06250    0.12500
                         0.12500    0.06250    0.12500    0.06250
           xangst      2.0538509643E+00  0.0000000000E+00  4.6664532449E+00
                       0.0000000000E+00  2.0538509643E+00  7.4160863946E+00
                       2.0538509643E+00  0.0000000000E+00  1.0102197795E+01
                       0.0000000000E+00  2.0538509643E+00  1.2851830945E+01
                       2.0538509643E+00  0.0000000000E+00  1.5537911238E+01
                       0.0000000000E+00  2.0538509643E+00  1.8287544388E+01
                       2.0538509643E+00  0.0000000000E+00  2.0973655789E+01
                       0.0000000000E+00  2.0538509643E+00  2.3723288938E+01
                       2.0538509643E+00  0.0000000000E+00  2.6409369232E+01
                       0.0000000000E+00  2.0538509643E+00  4.6982452269E+00
                       2.0538509643E+00  0.0000000000E+00  7.3843255202E+00
                       0.0000000000E+00  2.0538509643E+00  1.0133958670E+01
                       2.0538509643E+00  0.0000000000E+00  1.2820070071E+01
                       0.0000000000E+00  2.0538509643E+00  1.5569703220E+01
                       2.0538509643E+00  0.0000000000E+00  1.8255783514E+01
                       0.0000000000E+00  2.0538509643E+00  2.1005416663E+01
                       2.0538509643E+00  0.0000000000E+00  2.3691528064E+01
                       0.0000000000E+00  2.0538509643E+00  2.6441161214E+01
            xcart      3.8812158402E+00  0.0000000000E+00  8.8183186449E+00
                       0.0000000000E+00  3.8812158402E+00  1.4014372264E+01
                       3.8812158402E+00  0.0000000000E+00  1.9090387174E+01
                       0.0000000000E+00  3.8812158402E+00  2.4286440792E+01
                       3.8812158402E+00  0.0000000000E+00  2.9362396918E+01
                       0.0000000000E+00  3.8812158402E+00  3.4558450536E+01
                       3.8812158402E+00  0.0000000000E+00  3.9634465446E+01
                       0.0000000000E+00  3.8812158402E+00  4.4830519065E+01
                       3.8812158402E+00  0.0000000000E+00  4.9906475190E+01
                       0.0000000000E+00  3.8812158402E+00  8.8783967840E+00
                       3.8812158402E+00  0.0000000000E+00  1.3954352909E+01
                       0.0000000000E+00  3.8812158402E+00  1.9150406528E+01
                       3.8812158402E+00  0.0000000000E+00  2.4226421438E+01
                       0.0000000000E+00  3.8812158402E+00  2.9422475057E+01
                       3.8812158402E+00  0.0000000000E+00  3.4498431182E+01
                       0.0000000000E+00  3.8812158402E+00  3.9694484801E+01
                       3.8812158402E+00  0.0000000000E+00  4.4770499711E+01
                       0.0000000000E+00  3.8812158402E+00  4.9966553329E+01
             xred      5.0000000000E-01  0.0000000000E+00  1.5001000000E-01
                       0.0000000000E+00  5.0000000000E-01  2.3840100000E-01
                       5.0000000000E-01  0.0000000000E+00  3.2475000000E-01
                       0.0000000000E+00  5.0000000000E-01  4.1314100000E-01
                       5.0000000000E-01  0.0000000000E+00  4.9948900000E-01
                       0.0000000000E+00  5.0000000000E-01  5.8788000000E-01
                       5.0000000000E-01  0.0000000000E+00  6.7422900000E-01
                       0.0000000000E+00  5.0000000000E-01  7.6262000000E-01
                       5.0000000000E-01  0.0000000000E+00  8.4896800000E-01
                       0.0000000000E+00  5.0000000000E-01  1.5103200000E-01
                       5.0000000000E-01  0.0000000000E+00  2.3738000000E-01
                       0.0000000000E+00  5.0000000000E-01  3.2577100000E-01
                       5.0000000000E-01  0.0000000000E+00  4.1212000000E-01
                       0.0000000000E+00  5.0000000000E-01  5.0051100000E-01
                       5.0000000000E-01  0.0000000000E+00  5.8685900000E-01
                       0.0000000000E+00  5.0000000000E-01  6.7525000000E-01
                       5.0000000000E-01  0.0000000000E+00  7.6159900000E-01
                       0.0000000000E+00  5.0000000000E-01  8.4999000000E-01
            znucl       50.00000   34.00000

 chkinp: Checking input parameters for consistency.

== DATASET  1 ==================================================================
-   mpi_nproc: 6, omp_nthreads: -1 (-1 if OMP is not activated)

--- !DatasetInfo
iteration_state: {dtset: 1, }
dimensions: {natom: 18, nkpt: 10, mband: 138, nsppol: 1, nspinor: 1, nspden: 1, mpw: 18104, }
cutoff_energies: {ecut:  22.5, pawecutdg:  -1.0, }
electrons: {nelect:   2.70000000E+02, charge:   0.00000000E+00, occopt:   1.00000000E+00, tsmear:   1.00000000E-02, }
meta: {optdriver: 0, ionmov: 0, optcell: 0, iscf: 17, paral_kgb: 0, }
...

 Real(R)+Recip(G) space primitive vectors, cartesian coordinates (Bohr,Bohr^-1):
 R(1)=  7.7624317  0.0000000  0.0000000  G(1)=  0.1288256  0.0000000  0.0000000
[...]
    1     -0.00000000000000    -0.00000000000000    -0.01318250521757
    2     -0.00000000000000    -0.00000000000000    -0.01254856916927
    3     -0.00000000000000    -0.00000000000000     0.00453287409717
    4     -0.00000000000000    -0.00000000000000    -0.00127718242418
    5     -0.00000000000000    -0.00000000000000     0.00094386584656
    6     -0.00000000000000    -0.00000000000000    -0.00037550322914
    7     -0.00000000000000    -0.00000000000000    -0.00289526477614
    8     -0.00000000000000    -0.00000000000000     0.01025200946351
    9     -0.00000000000000    -0.00000000000000     0.01409324245260
   10     -0.00000000000000    -0.00000000000000    -0.01485589364808
   11     -0.00000000000000    -0.00000000000000    -0.01024945377779
   12     -0.00000000000000    -0.00000000000000     0.00140460926043
   13     -0.00000000000000    -0.00000000000000     0.00026608683571
   14     -0.00000000000000    -0.00000000000000    -0.00127853652992
   15     -0.00000000000000    -0.00000000000000     0.00344111278380
   16     -0.00000000000000    -0.00000000000000    -0.00419685912705
   17     -0.00000000000000    -0.00000000000000     0.01316433360690
   18     -0.00000000000000    -0.00000000000000     0.01276163355245
 frms,max,avg= 5.0214391E-03 1.4855894E-02   0.000E+00  0.000E+00 -2.674E-05 h/b

 cartesian forces (eV/Angstrom) at end:
    1     -0.00000000000000    -0.00000000000000    -0.67787161632982
    2     -0.00000000000000    -0.00000000000000    -0.64527331679396
    3     -0.00000000000000    -0.00000000000000     0.23308973826727
    4     -0.00000000000000    -0.00000000000000    -0.06567535532414
    5     -0.00000000000000    -0.00000000000000     0.04853552920674
    6     -0.00000000000000    -0.00000000000000    -0.01930915077763
    7     -0.00000000000000    -0.00000000000000    -0.14888048827686
    8     -0.00000000000000    -0.00000000000000     0.52717947847988
    9     -0.00000000000000    -0.00000000000000     0.72470360398103
   10     -0.00000000000000    -0.00000000000000    -0.76392070194828
   11     -0.00000000000000    -0.00000000000000    -0.52704805984755
   12     -0.00000000000000    -0.00000000000000     0.07222790615008
   13     -0.00000000000000    -0.00000000000000     0.01368273408045
   14     -0.00000000000000    -0.00000000000000    -0.06574498623496
   15     -0.00000000000000    -0.00000000000000     0.17694911902012
   16     -0.00000000000000    -0.00000000000000    -0.21581115523994
   17     -0.00000000000000    -0.00000000000000     0.67693719461769
   18     -0.00000000000000    -0.00000000000000     0.65622952696988
 frms,max,avg= 2.5821276E-01 7.6392070E-01   0.000E+00  0.000E+00 -1.375E-03 e/A
 length scales=  7.762431680422  7.762431680422  7.762431680422 bohr
              =  4.107701928516  4.107701928516  4.107701928516 angstroms
 prteigrs : about to open file Cs2TiI6o_EIG
 Fermi (or HOMO) energy (hartree) =   0.17153   Average Vxc (hartree)=  -0.33225
 Eigenvalues (hartree) for nkpt=  10  k points:
 kpt#   1, nband=138, wtk=  0.06250, kpt=  0.0625  0.0625  0.5000 (reduced coord)
  -1.65089   -1.65085   -1.65039   -1.64905   -1.64866   -1.64860   -1.64842   -1.64809
  -1.64797   -1.64736   -1.64733   -1.64639   -1.64585   -1.64564   -1.64533   -1.64422
  -1.64400   -1.64390   -1.64343   -1.64330   -1.64305   -1.64262   -1.64258   -1.64204
  -1.64190   -1.64188   -1.64098   -1.64085   -1.64061   -1.64035   -1.63927   -1.63696
  -1.63651   -1.63368   -1.63320   -1.62395   -1.62320   -1.62233   -1.62197   -1.62098
  -1.61982   -1.61920   -1.61906   -1.61805   -1.61758   -0.64376   -0.64367   -0.64251
  -0.64223   -0.64201   -0.64199   -0.64196   -0.64116   -0.64102   -0.64098   -0.64087
  -0.64086   -0.64069   -0.64013   -0.63961   -0.63953   -0.63928   -0.63919   -0.63907
  -0.63898   -0.63879   -0.63815   -0.63804   -0.63777   -0.63770   -0.63750   -0.63712
  -0.63684   -0.63674   -0.63639   -0.63632   -0.63534   -0.63524   -0.63508   -0.63480
  -0.63478   -0.63468   -0.63416   -0.63415   -0.63393   -0.63385   -0.63373   -0.63366
  -0.63349   -0.63338   -0.39896   -0.39415   -0.38625   -0.37551   -0.36341   -0.34996
  -0.33790   -0.32829   -0.32661   -0.11703   -0.11668   -0.10623   -0.10436   -0.08753
  -0.08401   -0.06329   -0.06150   -0.03905   -0.03112   -0.01957   -0.01208   -0.00615
   0.00186    0.00339    0.01121    0.01566    0.01820    0.02500    0.02871    0.03334
   0.04255    0.04293    0.05328    0.05552    0.05619    0.06387    0.06430    0.06670
   0.06726    0.08429    0.08629    0.09944    0.11171    0.13377    0.14708    0.22306
   0.23984    0.25670
 prteigrs : prtvol=0 or 1, do not print more k-points.

--- !EnergyTerms
iteration_state     : {dtset: 1, }
comment             : Components of total free energy in Hartree
kinetic             :  1.09440917517924E+03
hartree             :  2.17803117123537E+03
xc                  : -4.12893971850787E+02
Ewald energy        :  7.04879976484185E+02
psp_core            :  4.26610864366627E+01
local_psp           : -4.75210251171659E+03
non_local_psp       : -6.45197524907147E+02
VdWaals_dft_d       : -2.57791482892361E-01
total_energy        : -1.79047039062197E+03
...

--- !EnergyTermsDC
iteration_state     : {dtset: 1, }
comment             : '"Double-counting" decomposition of free energy'
band_energy         : -2.10565990303011E+02
Ewald energy        :  7.04879976484185E+02
psp_core            :  4.26610864366627E+01
xc_dc               : -2.32718771359820E+03
VdWaals_dft_d       : -2.57791482892361E-01
total_energy_dc     : -1.79047043246326E+03
...

 Cartesian components of stress tensor (hartree/bohr^3)
  sigma(1 1)=  1.45389109E-02  sigma(3 2)=  0.00000000E+00
  sigma(2 2)=  1.45389109E-02  sigma(3 1)=  0.00000000E+00
  sigma(3 3)=  1.42044438E-02  sigma(2 1)=  0.00000000E+00

-Cartesian components of stress tensor (GPa)         [Pressure= -4.2447E+02 GPa]
- sigma(1 1)=  4.27749454E+02  sigma(3 2)=  0.00000000E+00
- sigma(2 2)=  4.27749454E+02  sigma(3 1)=  0.00000000E+00
- sigma(3 3)=  4.17909093E+02  sigma(2 1)=  0.00000000E+00

== END DATASET(S) ==============================================================

 -outvars: echo values of variables after computation  --------
            acell      7.7624316804E+00  7.7624316804E+00  7.7624316804E+00 Bohr
              amu      1.18710000E+02  7.89600000E+01
           diemac      1.20000000E+01
             ecut      2.25000000E+01 Hartree
           etotal     -1.7904704325E+03
            fcart     -0.0000000000E+00 -0.0000000000E+00 -1.3182505218E-02
                      -0.0000000000E+00 -0.0000000000E+00 -1.2548569169E-02
                      -0.0000000000E+00 -0.0000000000E+00  4.5328740972E-03
                      -0.0000000000E+00 -0.0000000000E+00 -1.2771824242E-03
                      -0.0000000000E+00 -0.0000000000E+00  9.4386584656E-04
                      -0.0000000000E+00 -0.0000000000E+00 -3.7550322914E-04
                      -0.0000000000E+00 -0.0000000000E+00 -2.8952647761E-03
                      -0.0000000000E+00 -0.0000000000E+00  1.0252009464E-02
                      -0.0000000000E+00 -0.0000000000E+00  1.4093242453E-02
                      -0.0000000000E+00 -0.0000000000E+00 -1.4855893648E-02
                      -0.0000000000E+00 -0.0000000000E+00 -1.0249453778E-02
                      -0.0000000000E+00 -0.0000000000E+00  1.4046092604E-03
                      -0.0000000000E+00 -0.0000000000E+00  2.6608683571E-04
                      -0.0000000000E+00 -0.0000000000E+00 -1.2785365299E-03
                      -0.0000000000E+00 -0.0000000000E+00  3.4411127838E-03
                      -0.0000000000E+00 -0.0000000000E+00 -4.1968591270E-03
                      -0.0000000000E+00 -0.0000000000E+00  1.3164333607E-02
                      -0.0000000000E+00 -0.0000000000E+00  1.2761633552E-02
-          fftalg         112
             iscf          17
              ixc          11
              kpt      6.25000000E-02  6.25000000E-02  5.00000000E-01
                       1.87500000E-01  6.25000000E-02  5.00000000E-01
                       3.12500000E-01  6.25000000E-02  5.00000000E-01
                       4.37500000E-01  6.25000000E-02  5.00000000E-01
                       1.87500000E-01  1.87500000E-01  5.00000000E-01
                       3.12500000E-01  1.87500000E-01  5.00000000E-01
                       4.37500000E-01  1.87500000E-01  5.00000000E-01
                       3.12500000E-01  3.12500000E-01  5.00000000E-01
                       4.37500000E-01  3.12500000E-01  5.00000000E-01
                       4.37500000E-01  4.37500000E-01  5.00000000E-01
         kptrlatt        8    0    0      0    8    0      0    0    1
          kptrlen      6.20994534E+01
P           mkmem           2
            natom          18
            nband         138
            ngfft          36      36     256
             nkpt          10
            nstep         150
             nsym           8
           ntypat           2
              occ      2.000000  2.000000  2.000000  2.000000  2.000000  2.000000
                       2.000000  2.000000  2.000000  2.000000  2.000000  2.000000
                       2.000000  2.000000  2.000000  2.000000  2.000000  2.000000
                       2.000000  2.000000  2.000000  2.000000  2.000000  2.000000
                       2.000000  2.000000  2.000000  2.000000  2.000000  2.000000
                       2.000000  2.000000  2.000000  2.000000  2.000000  2.000000
                       2.000000  2.000000  2.000000  2.000000  2.000000  2.000000
                       2.000000  2.000000  2.000000  2.000000  2.000000  2.000000
                       2.000000  2.000000  2.000000  2.000000  2.000000  2.000000
                       2.000000  2.000000  2.000000  2.000000  2.000000  2.000000
                       2.000000  2.000000  2.000000  2.000000  2.000000  2.000000
                       2.000000  2.000000  2.000000  2.000000  2.000000  2.000000
                       2.000000  2.000000  2.000000  2.000000  2.000000  2.000000
                       2.000000  2.000000  2.000000  2.000000  2.000000  2.000000
                       2.000000  2.000000  2.000000  2.000000  2.000000  2.000000
                       2.000000  2.000000  2.000000  2.000000  2.000000  2.000000
                       2.000000  2.000000  2.000000  2.000000  2.000000  2.000000
                       2.000000  2.000000  2.000000  2.000000  2.000000  2.000000
                       2.000000  2.000000  2.000000  2.000000  2.000000  2.000000
                       2.000000  2.000000  2.000000  2.000000  2.000000  2.000000
                       2.000000  2.000000  2.000000  2.000000  2.000000  2.000000
                       2.000000  2.000000  2.000000  2.000000  2.000000  2.000000
                       2.000000  2.000000  2.000000  0.000000  0.000000  0.000000
           prtcif           1
            rprim      1.0000000000E+00  0.0000000000E+00  0.0000000000E+00
                       0.0000000000E+00  1.0000000000E+00  0.0000000000E+00
                       0.0000000000E+00  0.0000000000E+00  7.5729970188E+00
           shiftk      5.00000000E-01  5.00000000E-01  5.00000000E-01
          spgroup          99
           strten      1.4538910874E-02  1.4538910874E-02  1.4204443762E-02
                       0.0000000000E+00  0.0000000000E+00  0.0000000000E+00
           symrel      1  0  0   0  1  0   0  0  1       1  0  0   0 -1  0   0  0  1
                      -1  0  0   0 -1  0   0  0  1      -1  0  0   0  1  0   0  0  1
                       0  1  0   1  0  0   0  0  1       0  1  0  -1  0  0   0  0  1
                       0 -1  0  -1  0  0   0  0  1       0 -1  0   1  0  0   0  0  1
            tnons      0.0000000  0.0000000  0.0000000     0.0000000  0.0000000  0.0000000
                      -0.0000000  0.0000000  0.0000000    -0.0000000  0.0000000  0.0000000
                       0.5000000  0.5000000  0.0000000     0.5000000  0.5000000  0.0000000
                       0.5000000  0.5000000  0.0000000     0.5000000  0.5000000  0.0000000
           toldfe      1.00000000E-06 Hartree
            typat      1  1  1  1  1  1  1  1  1  2  2  2  2  2  2  2  2  2
           vdw_xc           5
              wtk        0.06250    0.12500    0.12500    0.12500    0.06250    0.12500
                         0.12500    0.06250    0.12500    0.06250
           xangst      2.0538509643E+00  0.0000000000E+00  4.6664532449E+00
                       0.0000000000E+00  2.0538509643E+00  7.4160863946E+00
                       2.0538509643E+00  0.0000000000E+00  1.0102197795E+01
                       0.0000000000E+00  2.0538509643E+00  1.2851830945E+01
                       2.0538509643E+00  0.0000000000E+00  1.5537911238E+01
                       0.0000000000E+00  2.0538509643E+00  1.8287544388E+01
                       2.0538509643E+00  0.0000000000E+00  2.0973655789E+01
                       0.0000000000E+00  2.0538509643E+00  2.3723288938E+01
                       2.0538509643E+00  0.0000000000E+00  2.6409369232E+01
                       0.0000000000E+00  2.0538509643E+00  4.6982452269E+00
                       2.0538509643E+00  0.0000000000E+00  7.3843255202E+00
                       0.0000000000E+00  2.0538509643E+00  1.0133958670E+01
                       2.0538509643E+00  0.0000000000E+00  1.2820070071E+01
                       0.0000000000E+00  2.0538509643E+00  1.5569703220E+01
                       2.0538509643E+00  0.0000000000E+00  1.8255783514E+01
                       0.0000000000E+00  2.0538509643E+00  2.1005416663E+01
                       2.0538509643E+00  0.0000000000E+00  2.3691528064E+01
                       0.0000000000E+00  2.0538509643E+00  2.6441161214E+01
            xcart      3.8812158402E+00  0.0000000000E+00  8.8183186449E+00
                       0.0000000000E+00  3.8812158402E+00  1.4014372264E+01
                       3.8812158402E+00  0.0000000000E+00  1.9090387174E+01
                       0.0000000000E+00  3.8812158402E+00  2.4286440792E+01
                       3.8812158402E+00  0.0000000000E+00  2.9362396918E+01
                       0.0000000000E+00  3.8812158402E+00  3.4558450536E+01
                       3.8812158402E+00  0.0000000000E+00  3.9634465446E+01
                       0.0000000000E+00  3.8812158402E+00  4.4830519065E+01
                       3.8812158402E+00  0.0000000000E+00  4.9906475190E+01
                       0.0000000000E+00  3.8812158402E+00  8.8783967840E+00
                       3.8812158402E+00  0.0000000000E+00  1.3954352909E+01
                       0.0000000000E+00  3.8812158402E+00  1.9150406528E+01
                       3.8812158402E+00  0.0000000000E+00  2.4226421438E+01
                       0.0000000000E+00  3.8812158402E+00  2.9422475057E+01
                       3.8812158402E+00  0.0000000000E+00  3.4498431182E+01
                       0.0000000000E+00  3.8812158402E+00  3.9694484801E+01
                       3.8812158402E+00  0.0000000000E+00  4.4770499711E+01
                       0.0000000000E+00  3.8812158402E+00  4.9966553329E+01
             xred      5.0000000000E-01  0.0000000000E+00  1.5001000000E-01
                       0.0000000000E+00  5.0000000000E-01  2.3840100000E-01
                       5.0000000000E-01  0.0000000000E+00  3.2475000000E-01
                       0.0000000000E+00  5.0000000000E-01  4.1314100000E-01
                       5.0000000000E-01  0.0000000000E+00  4.9948900000E-01
                       0.0000000000E+00  5.0000000000E-01  5.8788000000E-01
                       5.0000000000E-01  0.0000000000E+00  6.7422900000E-01
                       0.0000000000E+00  5.0000000000E-01  7.6262000000E-01
                       5.0000000000E-01  0.0000000000E+00  8.4896800000E-01
                       0.0000000000E+00  5.0000000000E-01  1.5103200000E-01
                       5.0000000000E-01  0.0000000000E+00  2.3738000000E-01
                       0.0000000000E+00  5.0000000000E-01  3.2577100000E-01
                       5.0000000000E-01  0.0000000000E+00  4.1212000000E-01
                       0.0000000000E+00  5.0000000000E-01  5.0051100000E-01
                       5.0000000000E-01  0.0000000000E+00  5.8685900000E-01
                       0.0000000000E+00  5.0000000000E-01  6.7525000000E-01
                       5.0000000000E-01  0.0000000000E+00  7.6159900000E-01
                       0.0000000000E+00  5.0000000000E-01  8.4999000000E-01
            znucl       50.00000   34.00000

- Timing analysis has been suppressed with timopt=0

 Suggested references for the acknowledgment of ABINIT usage.

 Calculation completed.
.Delivered   0 WARNINGs and   0 COMMENTs to log file.