.Version 9.2.2 of ABINIT

 ABINIT is a project of the Universite Catholique de Louvain,
 Corning Inc. and other collaborators, see ~abinit/doc/developers/contributors.txt .
 acknowledgments of the ABINIT effort.

.Starting date : Sun 17 Mar 2024.
- ( at 02h28 )

- The starting date is more than 3 years after the initial release
- of this version of ABINIT, namely Nov 2020.
- This version of ABINIT is not supported anymore.
- Action: please, switch to a more recent version of ABINIT.
- input  file    -> Cs2TiI6.in
- output file    -> Cs2TiI6.out
- root for input  files -> Cs2TiI6i
- root for output files -> Cs2TiI6o

 DATASET    1 : space group P4 m m (# 99); Bravais tP (primitive tetrag.)
     intxc =       0    ionmov =       0      iscf =      17    lmnmax =       6
     lnmax =       6     mgfft =     128  mpssoang =       3    mqgrid =    6225
     natom =       6  nloc_mem =       1    nspden =       1   nspinor =       1
    nsppol =       1      nsym =       8    n1xccc =    2501    ntypat =       3
    occopt =       1   xclevel =       2
-    mband =          60        mffmem =           1         mkmem =           5
       mpw =        8983          nfft =      165888          nkpt =          30
  Rough estimation (10% accuracy) of disk space for files :

[...]

 DATASET    3 : space group P4 m m (# 99); Bravais tP (primitive tetrag.)
     intxc =       0    ionmov =       0      iscf =      -3    lmnmax =       6
     lnmax =       6     mgfft =     128  mpssoang =       3    mqgrid =    6225
     natom =       6  nloc_mem =       1    nspden =       1   nspinor =       1
    nsppol =       1      nsym =       8    n1xccc =    2501    ntypat =       3
    occopt =       1   xclevel =       2
-    mband =          60        mffmem =           1         mkmem =           5
       mpw =        8983          nfft =      165888          nkpt =          30
  Rough estimation (10% accuracy) of disk space for files :

------------- Echo of variables that govern the present computation ------------
-
- outvars: echo of selected default values
-   iomode0 =  0 , fftalg0 =112 , wfoptalg0 =  0
-
- outvars: echo of global parameters not present in the input file
-  max_nthreads =    0
-
 -outvars: echo values of preprocessed input variables --------
            acell      7.7624316804E+00  7.7624316804E+00  7.7624316804E+00 Bohr
              amu      1.18710000E+02  7.89600000E+01  6.53900000E+01
           diemac      1.20000000E+01
        dosdeltae1     0.00000000E+00 Hartree
        dosdeltae2     0.00000000E+00 Hartree
        dosdeltae3     1.00000000E-03 Hartree
             ecut      2.25000000E+01 Hartree
-          fftalg         112
           getden1          0
           getden2          1
           getden3          1
           getwfk1          0
           getwfk2          0
           getwfk3          1
           iatsph3       1    2    4    5
             iscf1         17
             iscf2         -2
             iscf3         -3
           istwfk2       7    0    0    0    0    0    0    0    0    0
                         4    0    0    0    0    0    0    0    0    0
                         0    0    2    0    0    0    0    0    0    0
                         0    0    0    0    0    0    0    0    0    0
                         9    0    0    0    0    0    0    0    8    0
              ixc     -101130
           jdtset        1    2    3
              kpt1     5.00000000E-02  5.00000000E-02  1.25000000E-01
                       1.50000000E-01  5.00000000E-02  1.25000000E-01
                       2.50000000E-01  5.00000000E-02  1.25000000E-01
                       3.50000000E-01  5.00000000E-02  1.25000000E-01
                       4.50000000E-01  5.00000000E-02  1.25000000E-01
                       1.50000000E-01  1.50000000E-01  1.25000000E-01
                       2.50000000E-01  1.50000000E-01  1.25000000E-01
                       3.50000000E-01  1.50000000E-01  1.25000000E-01
                       4.50000000E-01  1.50000000E-01  1.25000000E-01
                       2.50000000E-01  2.50000000E-01  1.25000000E-01
                       3.50000000E-01  2.50000000E-01  1.25000000E-01
                       4.50000000E-01  2.50000000E-01  1.25000000E-01
                       3.50000000E-01  3.50000000E-01  1.25000000E-01
                       4.50000000E-01  3.50000000E-01  1.25000000E-01
                       4.50000000E-01  4.50000000E-01  1.25000000E-01
                       5.00000000E-02  5.00000000E-02  3.75000000E-01
                       1.50000000E-01  5.00000000E-02  3.75000000E-01
                       2.50000000E-01  5.00000000E-02  3.75000000E-01
                       3.50000000E-01  5.00000000E-02  3.75000000E-01
                       4.50000000E-01  5.00000000E-02  3.75000000E-01
                       1.50000000E-01  1.50000000E-01  3.75000000E-01
                       2.50000000E-01  1.50000000E-01  3.75000000E-01
                       3.50000000E-01  1.50000000E-01  3.75000000E-01
                       4.50000000E-01  1.50000000E-01  3.75000000E-01
                       2.50000000E-01  2.50000000E-01  3.75000000E-01
                       3.50000000E-01  2.50000000E-01  3.75000000E-01
                       4.50000000E-01  2.50000000E-01  3.75000000E-01
                       3.50000000E-01  3.50000000E-01  3.75000000E-01
                       4.50000000E-01  3.50000000E-01  3.75000000E-01
                       4.50000000E-01  4.50000000E-01  3.75000000E-01
              kpt2     5.00000000E-01  5.00000000E-01  0.00000000E+00
                       4.50000000E-01  4.50000000E-01  5.00000000E-02
                       4.00000000E-01  4.00000000E-01  1.00000000E-01
                       3.50000000E-01  3.50000000E-01  1.50000000E-01
                       3.00000000E-01  3.00000000E-01  2.00000000E-01
                       2.50000000E-01  2.50000000E-01  2.50000000E-01
                       2.00000000E-01  2.00000000E-01  3.00000000E-01
                       1.50000000E-01  1.50000000E-01  3.50000000E-01
                       1.00000000E-01  1.00000000E-01  4.00000000E-01
                       5.00000000E-02  5.00000000E-02  4.50000000E-01
                       0.00000000E+00  0.00000000E+00  5.00000000E-01
                       0.00000000E+00  0.00000000E+00  4.58333333E-01
                       0.00000000E+00  0.00000000E+00  4.16666667E-01
                       0.00000000E+00  0.00000000E+00  3.75000000E-01
                       0.00000000E+00  0.00000000E+00  3.33333333E-01
                       0.00000000E+00  0.00000000E+00  2.91666667E-01
                       0.00000000E+00  0.00000000E+00  2.50000000E-01
                       0.00000000E+00  0.00000000E+00  2.08333333E-01
                       0.00000000E+00  0.00000000E+00  1.66666667E-01
                       0.00000000E+00  0.00000000E+00  1.25000000E-01
                       0.00000000E+00  0.00000000E+00  8.33333333E-02
                       0.00000000E+00  0.00000000E+00  4.16666667E-02
                       0.00000000E+00  0.00000000E+00  0.00000000E+00
                       2.77777778E-02  2.77777778E-02  2.77777778E-02
                       5.55555556E-02  5.55555556E-02  5.55555556E-02
                       8.33333333E-02  8.33333333E-02  8.33333333E-02
                       1.11111111E-01  1.11111111E-01  1.11111111E-01
                       1.38888889E-01  1.38888889E-01  1.38888889E-01
                       1.66666667E-01  1.66666667E-01  1.66666667E-01
                       1.94444444E-01  1.94444444E-01  1.94444444E-01
                       2.22222222E-01  2.22222222E-01  2.22222222E-01
                       2.50000000E-01  2.50000000E-01  2.50000000E-01
                       2.77777778E-01  2.77777778E-01  2.77777778E-01
                       3.05555556E-01  3.05555556E-01  3.05555556E-01
                       3.33333333E-01  3.33333333E-01  3.33333333E-01
                       3.61111111E-01  3.61111111E-01  3.61111111E-01
                       3.88888889E-01  3.88888889E-01  3.88888889E-01
                       4.16666667E-01  4.16666667E-01  4.16666667E-01
                       4.44444444E-01  4.44444444E-01  4.44444444E-01
                       4.72222222E-01  4.72222222E-01  4.72222222E-01
                       5.00000000E-01  5.00000000E-01  5.00000000E-01
                       4.37500000E-01  5.00000000E-01  5.00000000E-01
                       3.75000000E-01  5.00000000E-01  5.00000000E-01
                       3.12500000E-01  5.00000000E-01  5.00000000E-01
                       2.50000000E-01  5.00000000E-01  5.00000000E-01
                       1.87500000E-01  5.00000000E-01  5.00000000E-01
                       1.25000000E-01  5.00000000E-01  5.00000000E-01
                       6.25000000E-02  5.00000000E-01  5.00000000E-01
                       0.00000000E+00  5.00000000E-01  5.00000000E-01
                       0.00000000E+00  5.00000000E-01  4.37500000E-01
              kpt3     5.00000000E-02  5.00000000E-02  1.25000000E-01
                       1.50000000E-01  5.00000000E-02  1.25000000E-01
                       2.50000000E-01  5.00000000E-02  1.25000000E-01
                       3.50000000E-01  5.00000000E-02  1.25000000E-01
                       4.50000000E-01  5.00000000E-02  1.25000000E-01
                       1.50000000E-01  1.50000000E-01  1.25000000E-01
                       2.50000000E-01  1.50000000E-01  1.25000000E-01
                       3.50000000E-01  1.50000000E-01  1.25000000E-01
                       4.50000000E-01  1.50000000E-01  1.25000000E-01
                       2.50000000E-01  2.50000000E-01  1.25000000E-01
                       3.50000000E-01  2.50000000E-01  1.25000000E-01
                       4.50000000E-01  2.50000000E-01  1.25000000E-01
                       3.50000000E-01  3.50000000E-01  1.25000000E-01
                       4.50000000E-01  3.50000000E-01  1.25000000E-01
                       4.50000000E-01  4.50000000E-01  1.25000000E-01
                       5.00000000E-02  5.00000000E-02  3.75000000E-01
                       1.50000000E-01  5.00000000E-02  3.75000000E-01
                       2.50000000E-01  5.00000000E-02  3.75000000E-01
                       3.50000000E-01  5.00000000E-02  3.75000000E-01
                       4.50000000E-01  5.00000000E-02  3.75000000E-01
                       1.50000000E-01  1.50000000E-01  3.75000000E-01
                       2.50000000E-01  1.50000000E-01  3.75000000E-01
                       3.50000000E-01  1.50000000E-01  3.75000000E-01
                       4.50000000E-01  1.50000000E-01  3.75000000E-01
                       2.50000000E-01  2.50000000E-01  3.75000000E-01
                       3.50000000E-01  2.50000000E-01  3.75000000E-01
                       4.50000000E-01  2.50000000E-01  3.75000000E-01
                       3.50000000E-01  3.50000000E-01  3.75000000E-01
                       4.50000000E-01  3.50000000E-01  3.75000000E-01
                       4.50000000E-01  4.50000000E-01  3.75000000E-01
                       outvar_i_n : Printing only first  50 k-points.
[...]
xc                  : -1.37860472759110E+02
Ewald energy        :  2.40791015068043E+02
psp_core            :  1.01390925080127E+01
local_psp           : -2.10998028785785E+03
non_local_psp       : -2.64513740981754E+02
VdWaals_dft_d       : -3.83849335082636E-02
total_energy        : -8.56096201652525E+02
...

--- !EnergyTermsDC
iteration_state     : {dtset: 3, }
comment             : '"Double-counting" decomposition of free energy'
band_energy         : -1.28130398447177E+02
Ewald energy        :  2.40791015068043E+02
psp_core            :  1.01390925080127E+01
xc_dc               : -9.78857525848039E+02
VdWaals_dft_d       : -3.83849335082636E-02
total_energy_dc     : -8.56096201652668E+02
...

== END DATASET(S) ==============================================================

 -outvars: echo values of variables after computation  --------
            acell      7.7624316804E+00  7.7624316804E+00  7.7624316804E+00 Bohr
              amu      1.18710000E+02  7.89600000E+01  6.53900000E+01
           diemac      1.20000000E+01
        dosdeltae1     0.00000000E+00 Hartree
        dosdeltae2     0.00000000E+00 Hartree
        dosdeltae3     1.00000000E-03 Hartree
             ecut      2.25000000E+01 Hartree
           etotal1    -8.5609620165E+02
           etotal3    -8.5609620165E+02
            fcart1    -0.0000000000E+00 -0.0000000000E+00 -7.9796244747E-03
                      -0.0000000000E+00 -0.0000000000E+00  4.9725539320E-03
                      -0.0000000000E+00 -0.0000000000E+00  8.2356292678E-03
                      -0.0000000000E+00 -0.0000000000E+00 -1.1645775261E-02
                      -0.0000000000E+00 -0.0000000000E+00  3.2086082681E-03
                      -0.0000000000E+00 -0.0000000000E+00  3.2086082681E-03
-          fftalg         112
           getden1          0
           getden2          1
           getden3          1
           getwfk1          0
           getwfk2          0
           getwfk3          1
           iatsph3       1    2    4    5
             iscf1         17
             iscf2         -2
             iscf3         -3
           istwfk2       7    0    0    0    0    0    0    0    0    0
                         4    0    0    0    0    0    0    0    0    0
                         0    0    2    0    0    0    0    0    0    0
                         0    0    0    0    0    0    0    0    0    0
                         9    0    0    0    0    0    0    0    8    0
              ixc     -101130
           jdtset        1    2    3
              kpt1     5.00000000E-02  5.00000000E-02  1.25000000E-01
                       1.50000000E-01  5.00000000E-02  1.25000000E-01
                       2.50000000E-01  5.00000000E-02  1.25000000E-01
                       3.50000000E-01  5.00000000E-02  1.25000000E-01
                       4.50000000E-01  5.00000000E-02  1.25000000E-01
                       1.50000000E-01  1.50000000E-01  1.25000000E-01
                       2.50000000E-01  1.50000000E-01  1.25000000E-01
                       3.50000000E-01  1.50000000E-01  1.25000000E-01
                       4.50000000E-01  1.50000000E-01  1.25000000E-01
                       2.50000000E-01  2.50000000E-01  1.25000000E-01
                       3.50000000E-01  2.50000000E-01  1.25000000E-01
                       4.50000000E-01  2.50000000E-01  1.25000000E-01
                       3.50000000E-01  3.50000000E-01  1.25000000E-01
                       4.50000000E-01  3.50000000E-01  1.25000000E-01
                       4.50000000E-01  4.50000000E-01  1.25000000E-01
                       5.00000000E-02  5.00000000E-02  3.75000000E-01
                       1.50000000E-01  5.00000000E-02  3.75000000E-01
                       2.50000000E-01  5.00000000E-02  3.75000000E-01
                       3.50000000E-01  5.00000000E-02  3.75000000E-01
                       4.50000000E-01  5.00000000E-02  3.75000000E-01
                       1.50000000E-01  1.50000000E-01  3.75000000E-01
                       2.50000000E-01  1.50000000E-01  3.75000000E-01
                       3.50000000E-01  1.50000000E-01  3.75000000E-01
                       4.50000000E-01  1.50000000E-01  3.75000000E-01
                       2.50000000E-01  2.50000000E-01  3.75000000E-01
                       3.50000000E-01  2.50000000E-01  3.75000000E-01
                       4.50000000E-01  2.50000000E-01  3.75000000E-01
                       3.50000000E-01  3.50000000E-01  3.75000000E-01
                       4.50000000E-01  3.50000000E-01  3.75000000E-01
                       4.50000000E-01  4.50000000E-01  3.75000000E-01
              kpt2     5.00000000E-01  5.00000000E-01  0.00000000E+00
                       4.50000000E-01  4.50000000E-01  5.00000000E-02
                       4.00000000E-01  4.00000000E-01  1.00000000E-01
                       3.50000000E-01  3.50000000E-01  1.50000000E-01
                       3.00000000E-01  3.00000000E-01  2.00000000E-01
                       2.50000000E-01  2.50000000E-01  2.50000000E-01
                       2.00000000E-01  2.00000000E-01  3.00000000E-01
                       1.50000000E-01  1.50000000E-01  3.50000000E-01
                       1.00000000E-01  1.00000000E-01  4.00000000E-01
                       5.00000000E-02  5.00000000E-02  4.50000000E-01
                       0.00000000E+00  0.00000000E+00  5.00000000E-01
                       0.00000000E+00  0.00000000E+00  4.58333333E-01
                       0.00000000E+00  0.00000000E+00  4.16666667E-01
                       0.00000000E+00  0.00000000E+00  3.75000000E-01
                       0.00000000E+00  0.00000000E+00  3.33333333E-01
                       0.00000000E+00  0.00000000E+00  2.91666667E-01
                       0.00000000E+00  0.00000000E+00  2.50000000E-01
                       0.00000000E+00  0.00000000E+00  2.08333333E-01
                       0.00000000E+00  0.00000000E+00  1.66666667E-01
                       0.00000000E+00  0.00000000E+00  1.25000000E-01
                       0.00000000E+00  0.00000000E+00  8.33333333E-02
                       0.00000000E+00  0.00000000E+00  4.16666667E-02
                       0.00000000E+00  0.00000000E+00  0.00000000E+00
                       2.77777778E-02  2.77777778E-02  2.77777778E-02
                       5.55555556E-02  5.55555556E-02  5.55555556E-02
                       8.33333333E-02  8.33333333E-02  8.33333333E-02
                       1.11111111E-01  1.11111111E-01  1.11111111E-01
                       1.38888889E-01  1.38888889E-01  1.38888889E-01
                       1.66666667E-01  1.66666667E-01  1.66666667E-01
                       1.94444444E-01  1.94444444E-01  1.94444444E-01
                       2.22222222E-01  2.22222222E-01  2.22222222E-01
                       2.50000000E-01  2.50000000E-01  2.50000000E-01
                       2.77777778E-01  2.77777778E-01  2.77777778E-01
                       3.05555556E-01  3.05555556E-01  3.05555556E-01
                       3.33333333E-01  3.33333333E-01  3.33333333E-01
                       3.61111111E-01  3.61111111E-01  3.61111111E-01
                       3.88888889E-01  3.88888889E-01  3.88888889E-01
                       4.16666667E-01  4.16666667E-01  4.16666667E-01
                       4.44444444E-01  4.44444444E-01  4.44444444E-01
                       4.72222222E-01  4.72222222E-01  4.72222222E-01
                       5.00000000E-01  5.00000000E-01  5.00000000E-01
                       4.37500000E-01  5.00000000E-01  5.00000000E-01
                       3.75000000E-01  5.00000000E-01  5.00000000E-01
                       3.12500000E-01  5.00000000E-01  5.00000000E-01
                       2.50000000E-01  5.00000000E-01  5.00000000E-01
                       1.87500000E-01  5.00000000E-01  5.00000000E-01
                       1.25000000E-01  5.00000000E-01  5.00000000E-01
                       6.25000000E-02  5.00000000E-01  5.00000000E-01
                       0.00000000E+00  5.00000000E-01  5.00000000E-01
                       0.00000000E+00  5.00000000E-01  4.37500000E-01
              kpt3     5.00000000E-02  5.00000000E-02  1.25000000E-01
                       1.50000000E-01  5.00000000E-02  1.25000000E-01
                       2.50000000E-01  5.00000000E-02  1.25000000E-01
                       3.50000000E-01  5.00000000E-02  1.25000000E-01
                       4.50000000E-01  5.00000000E-02  1.25000000E-01
                       1.50000000E-01  1.50000000E-01  1.25000000E-01
                       2.50000000E-01  1.50000000E-01  1.25000000E-01
                       3.50000000E-01  1.50000000E-01  1.25000000E-01
                       4.50000000E-01  1.50000000E-01  1.25000000E-01
                       2.50000000E-01  2.50000000E-01  1.25000000E-01
                       3.50000000E-01  2.50000000E-01  1.25000000E-01
                       4.50000000E-01  2.50000000E-01  1.25000000E-01
                       3.50000000E-01  3.50000000E-01  1.25000000E-01
                       4.50000000E-01  3.50000000E-01  1.25000000E-01
                       4.50000000E-01  4.50000000E-01  1.25000000E-01
                       5.00000000E-02  5.00000000E-02  3.75000000E-01
                       1.50000000E-01  5.00000000E-02  3.75000000E-01
                       2.50000000E-01  5.00000000E-02  3.75000000E-01
                       3.50000000E-01  5.00000000E-02  3.75000000E-01
                       4.50000000E-01  5.00000000E-02  3.75000000E-01
                       1.50000000E-01  1.50000000E-01  3.75000000E-01
                       2.50000000E-01  1.50000000E-01  3.75000000E-01
                       3.50000000E-01  1.50000000E-01  3.75000000E-01
                       4.50000000E-01  1.50000000E-01  3.75000000E-01
                       2.50000000E-01  2.50000000E-01  3.75000000E-01
                       3.50000000E-01  2.50000000E-01  3.75000000E-01
                       4.50000000E-01  2.50000000E-01  3.75000000E-01
                       3.50000000E-01  3.50000000E-01  3.75000000E-01
                       4.50000000E-01  3.50000000E-01  3.75000000E-01
                       4.50000000E-01  4.50000000E-01  3.75000000E-01
                       outvar_i_n : Printing only first  50 k-points.
           kptopt1          1
           kptopt2         -5
           kptopt3          1
         kptrlatt       10    0    0      0   10    0      0    0    4
          kptrlen1     7.76243168E+01
          kptrlen2     3.00000000E+01
          kptrlen3     7.76243168E+01
P           mkmem1          5
P           mkmem2         10
P           mkmem3          5
            natom           6
           natsph3       4
            nband1         60
            nband2         60
            nband3         60
           nbdbuf1          0
           nbdbuf2          2
           nbdbuf3          2
           ndtset           3
            ngfft          36      36     128
             nkpt1         30
             nkpt2         57
             nkpt3         30
            nstep1       1000
            nstep2        300
            nstep3        300
             nsym           8
           ntypat           3
              occ      2.000000  2.000000  2.000000  2.000000  2.000000  2.000000
                       2.000000  2.000000  2.000000  2.000000  2.000000  2.000000
                       2.000000  2.000000  2.000000  2.000000  2.000000  2.000000
                       2.000000  2.000000  2.000000  2.000000  2.000000  2.000000
                       2.000000  2.000000  2.000000  2.000000  2.000000  2.000000
                       2.000000  2.000000  2.000000  2.000000  2.000000  2.000000
                       2.000000  2.000000  2.000000  2.000000  2.000000  2.000000
                       2.000000  2.000000  2.000000  2.000000  2.000000  2.000000
                       2.000000  2.000000  2.000000  0.000000  0.000000  0.000000
                       0.000000  0.000000  0.000000  0.000000  0.000000  0.000000
           prtcif           1
           prtdos1          0
           prtdos2          0
           prtdos3          3
            rprim      1.0000000000E+00  0.0000000000E+00  0.0000000000E+00
                       0.0000000000E+00  1.0000000000E+00  0.0000000000E+00
                       0.0000000000E+00  0.0000000000E+00  3.7552899407E+00
           shiftk      5.00000000E-01  5.00000000E-01  5.00000000E-01
          spgroup          99
           strten1     1.3213521826E-02  1.3213521826E-02  1.3236360894E-02
                       0.0000000000E+00  0.0000000000E+00  0.0000000000E+00
           symrel      1  0  0   0  1  0   0  0  1       1  0  0   0 -1  0   0  0  1
                      -1  0  0   0 -1  0   0  0  1      -1  0  0   0  1  0   0  0  1
                       0  1  0   1  0  0   0  0  1       0  1  0  -1  0  0   0  0  1
                       0 -1  0  -1  0  0   0  0  1       0 -1  0   1  0  0   0  0  1
            tnons      0.0000000  0.0000000  0.0000000     0.0000000  0.0000000  0.0000000
                       0.0000000  0.0000000  0.0000000     0.0000000  0.0000000  0.0000000
                       0.5000000  0.5000000  0.0000000     0.5000000  0.5000000  0.0000000
                       0.5000000  0.5000000  0.0000000     0.5000000  0.5000000  0.0000000
           tolwfr      1.00000000E-20
            typat      1  2  2  2  3  3
           vdw_xc           5
              wtk1       0.02000    0.04000    0.04000    0.04000    0.04000    0.02000
                         0.04000    0.04000    0.04000    0.02000    0.04000    0.04000
                         0.02000    0.04000    0.02000    0.02000    0.04000    0.04000
                         0.04000    0.04000    0.02000    0.04000    0.04000    0.04000
                         0.02000    0.04000    0.04000    0.02000    0.04000    0.02000
              wtk2       1.00000    1.00000    1.00000    1.00000    1.00000    1.00000
                         1.00000    1.00000    1.00000    1.00000    1.00000    1.00000
                         1.00000    1.00000    1.00000    1.00000    1.00000    1.00000
                         1.00000    1.00000    1.00000    1.00000    1.00000    1.00000
                         1.00000    1.00000    1.00000    1.00000    1.00000    1.00000
                         1.00000    1.00000    1.00000    1.00000    1.00000    1.00000
                         1.00000    1.00000    1.00000    1.00000    1.00000    1.00000
                         1.00000    1.00000    1.00000    1.00000    1.00000    1.00000
                         1.00000    1.00000
              wtk3       0.02000    0.04000    0.04000    0.04000    0.04000    0.02000
                         0.04000    0.04000    0.04000    0.02000    0.04000    0.04000
                         0.02000    0.04000    0.02000    0.02000    0.04000    0.04000
                         0.04000    0.04000    0.02000    0.04000    0.04000    0.04000
                         0.02000    0.04000    0.04000    0.02000    0.04000    0.02000
                       outvars : Printing only first  50 k-points.
           xangst      2.0538509643E+00  0.0000000000E+00  4.6664635074E+00
                       0.0000000000E+00  2.0538509643E+00  4.6982402675E+00
                       2.0538509643E+00  0.0000000000E+00  7.7691247742E+00
                       0.0000000000E+00  2.0538509643E+00  1.0759148224E+01
                       2.0538509643E+00  2.0538509643E+00  9.2641442120E+00
                       0.0000000000E+00  0.0000000000E+00  9.2641442120E+00
            xcart      3.8812158402E+00  0.0000000000E+00  8.8183380380E+00
                       0.0000000000E+00  3.8812158402E+00  8.8783874121E+00
                       3.8812158402E+00  0.0000000000E+00  1.4681518115E+01
                       0.0000000000E+00  3.8812158402E+00  2.0331843567E+01
                       3.8812158402E+00  3.8812158402E+00  1.7506695416E+01
                       0.0000000000E+00  0.0000000000E+00  1.7506695416E+01
             xred      5.0000000000E-01  0.0000000000E+00  3.0251400000E-01
                       0.0000000000E+00  5.0000000000E-01  3.0457400000E-01
                       5.0000000000E-01  0.0000000000E+00  5.0365100000E-01
                       0.0000000000E+00  5.0000000000E-01  6.9748600000E-01
                       5.0000000000E-01  5.0000000000E-01  6.0056900000E-01
                       0.0000000000E+00  0.0000000000E+00  6.0056900000E-01
            znucl       50.00000   34.00000   30.00000

- Timing analysis has been suppressed with timopt=0

 Suggested references for the acknowledgment of ABINIT usage.

 Calculation completed.
.Delivered   0 WARNINGs and   0 COMMENTs to log file.