.Version 9.2.2 of ABINIT

 ABINIT is a project of the Universite Catholique de Louvain,
 Corning Inc. and other collaborators, see ~abinit/doc/developers/contributors.txt .
 acknowledgments of the ABINIT effort.

.Starting date : Fri  1 Mar 2024.
- ( at 04h06 )

- The starting date is more than 3 years after the initial release
- of this version of ABINIT, namely Nov 2020.
- This version of ABINIT is not supported anymore.
- Action: please, switch to a more recent version of ABINIT.
- input  file    -> Cs2TiI6.in
- output file    -> Cs2TiI6.out
- root for input  files -> Cs2TiI6i
- root for output files -> Cs2TiI6o

 Symmetries : space group P4/n m m (#129); Bravais tP (primitive tetrag.)
     intxc =       0    ionmov =       0      iscf =      17    lmnmax =       6
     lnmax =       6     mgfft =     288  mpssoang =       3    mqgrid =   13649
     natom =      20  nloc_mem =       1    nspden =       1   nspinor =       1
    nsppol =       1      nsym =      16    n1xccc =    2501    ntypat =       2
    occopt =       1   xclevel =       2
-    mband =         153        mffmem =           1         mkmem =           2
       mpw =       19680          nfft =      373248          nkpt =          10
  Rough estimation (10% accuracy) of disk space for files :

------------- Echo of variables that govern the present computation ------------
-
- outvars: echo of selected default values
-   iomode0 =  0 , fftalg0 =112 , wfoptalg0 =  0
-
- outvars: echo of global parameters not present in the input file
-  max_nthreads =    0
-
 -outvars: echo values of preprocessed input variables --------
            acell      7.7624316804E+00  7.7624316804E+00  7.7624316804E+00 Bohr
              amu      1.18710000E+02  7.89600000E+01
           diemac      1.20000000E+01
             ecut      2.25000000E+01 Hartree
-          fftalg         112
             iscf          17
              ixc          11
              kpt      6.25000000E-02  6.25000000E-02  5.00000000E-01
                       1.87500000E-01  6.25000000E-02  5.00000000E-01
                       3.12500000E-01  6.25000000E-02  5.00000000E-01
                       4.37500000E-01  6.25000000E-02  5.00000000E-01
                       1.87500000E-01  1.87500000E-01  5.00000000E-01
                       3.12500000E-01  1.87500000E-01  5.00000000E-01
                       4.37500000E-01  1.87500000E-01  5.00000000E-01
                       3.12500000E-01  3.12500000E-01  5.00000000E-01
                       4.37500000E-01  3.12500000E-01  5.00000000E-01
                       4.37500000E-01  4.37500000E-01  5.00000000E-01
         kptrlatt        8    0    0      0    8    0      0    0    1
          kptrlen      6.20994534E+01
P           mkmem           2
            natom          20
            nband         153
            ngfft          36      36     288
             nkpt          10
            nstep         150
             nsym          16
           ntypat           2
              occ      2.000000  2.000000  2.000000  2.000000  2.000000  2.000000
                       2.000000  2.000000  2.000000  2.000000  2.000000  2.000000
                       2.000000  2.000000  2.000000  2.000000  2.000000  2.000000
                       2.000000  2.000000  2.000000  2.000000  2.000000  2.000000
                       2.000000  2.000000  2.000000  2.000000  2.000000  2.000000
                       2.000000  2.000000  2.000000  2.000000  2.000000  2.000000
                       2.000000  2.000000  2.000000  2.000000  2.000000  2.000000
                       2.000000  2.000000  2.000000  2.000000  2.000000  2.000000
                       2.000000  2.000000  2.000000  2.000000  2.000000  2.000000
                       2.000000  2.000000  2.000000  2.000000  2.000000  2.000000
                       2.000000  2.000000  2.000000  2.000000  2.000000  2.000000
                       2.000000  2.000000  2.000000  2.000000  2.000000  2.000000
                       2.000000  2.000000  2.000000  2.000000  2.000000  2.000000
                       2.000000  2.000000  2.000000  2.000000  2.000000  2.000000
                       2.000000  2.000000  2.000000  2.000000  2.000000  2.000000
                       2.000000  2.000000  2.000000  2.000000  2.000000  2.000000
                       2.000000  2.000000  2.000000  2.000000  2.000000  2.000000
                       2.000000  2.000000  2.000000  2.000000  2.000000  2.000000
                       2.000000  2.000000  2.000000  2.000000  2.000000  2.000000
                       2.000000  2.000000  2.000000  2.000000  2.000000  2.000000
                       2.000000  2.000000  2.000000  2.000000  2.000000  2.000000
                       2.000000  2.000000  2.000000  2.000000  2.000000  2.000000
                       2.000000  2.000000  2.000000  2.000000  2.000000  2.000000
                       2.000000  2.000000  2.000000  2.000000  2.000000  2.000000
                       2.000000  2.000000  2.000000  2.000000  2.000000  2.000000
                       0.000000  0.000000  0.000000
           prtcif           1
            rprim      1.0000000000E+00  0.0000000000E+00  0.0000000000E+00
                       0.0000000000E+00  1.0000000000E+00  0.0000000000E+00
                       1.0000000000E-15  1.0000000000E-15  8.2346474988E+00
           shiftk      5.00000000E-01  5.00000000E-01  5.00000000E-01
          spgroup         129
           symrel      1  0  0   0  1  0   0  0  1      -1  0  0   0 -1  0   0  0 -1
                      -1  0  0   0  1  0   0  0 -1       1  0  0   0 -1  0   0  0  1
                      -1  0  0   0 -1  0   0  0  1       1  0  0   0  1  0   0  0 -1
                       1  0  0   0 -1  0   0  0 -1      -1  0  0   0  1  0   0  0  1
                       0  1  0   1  0  0   0  0  1       0 -1  0  -1  0  0   0  0 -1
                       0 -1  0   1  0  0   0  0 -1       0  1  0  -1  0  0   0  0  1
                       0 -1  0  -1  0  0   0  0  1       0  1  0   1  0  0   0  0 -1
                       0  1  0  -1  0  0   0  0 -1       0 -1  0   1  0  0   0  0  1
            tnons      0.0000000  0.0000000  0.0000000     0.5000000  0.5000000 -0.0000000
                       0.5000000  0.5000000 -0.0000000     0.0000000  0.0000000  0.0000000
                       0.0000000  0.0000000  0.0000000     0.5000000  0.5000000 -0.0000000
                       0.5000000  0.5000000 -0.0000000     0.0000000  0.0000000  0.0000000
                       0.5000000  0.5000000  0.0000000     0.0000000 -0.0000000 -0.0000000
                       0.0000000 -0.0000000 -0.0000000     0.5000000  0.5000000  0.0000000
                       0.5000000  0.5000000  0.0000000     0.0000000 -0.0000000 -0.0000000
                       0.0000000 -0.0000000 -0.0000000     0.5000000  0.5000000  0.0000000
           toldfe      1.00000000E-06 Hartree
            typat      1  1  1  1  1  1  1  1  1  1  2  2  2  2  2  2  2  2  2  2
           vdw_xc           5
              wtk        0.06250    0.12500    0.12500    0.12500    0.06250    0.12500
                         0.12500    0.06250    0.12500    0.06250
           xangst      2.0538509643E+00  5.6668623495E-16  4.6664613872E+00
                       9.0059721702E-16  2.0538509643E+00  7.4161006205E+00
                       2.0538509643E+00  1.2267898272E-15  1.0102181782E+01
                       1.5607008092E-15  2.0538509643E+00  1.2851821015E+01
                       2.0538509643E+00  1.8868975271E-15  1.5537936002E+01
                       2.2208044014E-15  2.0538509643E+00  1.8287541410E+01
                       2.0538509643E+00  2.5470011193E-15  2.0973656396E+01
                       2.8809121014E-15  2.0538509643E+00  2.3723295630E+01
                       2.0538509643E+00  3.2071047115E-15  2.6409376791E+01
                       3.5410156936E-15  2.0538509643E+00  2.9159016024E+01
                       5.7054336706E-16  2.0538509643E+00  4.6982235105E+00
                       2.0538509643E+00  8.9674008491E-16  7.3843384972E+00
                       1.2306510670E-15  2.0538509643E+00  1.0133977731E+01
                       2.0538509643E+00  1.5568436771E-15  1.2820058892E+01
                       1.8907546592E-15  2.0538509643E+00  1.5569698125E+01
                       2.0538509643E+00  2.2169472693E-15  1.8255779286E+01
                       2.5508582514E-15  2.0538509643E+00  2.1005418520E+01
                       2.0538509643E+00  2.8770508615E-15  2.3691499681E+01
                       3.2109618436E-15  2.0538509643E+00  2.6441138914E+01
                       2.0538509643E+00  3.5371585615E-15  2.9127253901E+01
            xcart      3.8812158402E+00  1.0708817873E-15  8.8183340316E+00
                       1.7018820962E-15  3.8812158402E+00  1.4014399147E+01
                       3.8812158402E+00  2.3182967959E-15  1.9090356912E+01
                       2.9492971048E-15  3.8812158402E+00  2.4286422027E+01
                       3.8812158402E+00  3.5657195670E-15  2.9362443714E+01
                       4.1967121134E-15  3.8812158402E+00  3.4558444908E+01
                       3.8812158402E+00  4.8131345756E-15  3.9634466594E+01
                       5.4441348845E-15  3.8812158402E+00  4.4830531709E+01
                       3.8812158402E+00  6.0605495842E-15  4.9906489475E+01
                       6.6915498931E-15  3.8812158402E+00  5.5102554590E+01
                       1.0781707107E-15  3.8812158402E+00  8.8783557460E+00
                       3.8812158402E+00  1.6945931729E-15  1.3954377432E+01
                       2.3255934817E-15  3.8812158402E+00  1.9150442547E+01
                       3.8812158402E+00  2.9420081815E-15  2.4226400313E+01
                       3.5730084903E-15  3.8812158402E+00  2.9422465428E+01
                       3.8812158402E+00  4.1894231901E-15  3.4498423194E+01
                       4.8204234990E-15  3.8812158402E+00  3.9694488309E+01
                       3.8812158402E+00  5.4368381987E-15  4.4770446074E+01
                       6.0678385076E-15  3.8812158402E+00  4.9966511189E+01
                       3.8812158402E+00  6.6842609697E-15  5.5042532876E+01
             xred      5.0000000000E-01  2.4353571625E-32  1.3795700000E-01
                       5.0797376041E-32  5.0000000000E-01  2.1924600000E-01
                       5.0000000000E-01  2.7935998402E-32  2.9865600000E-01
                       5.0759962419E-33  5.0000000000E-01  3.7994500000E-01
                       5.0000000000E-01  1.2723263435E-31  4.5935600000E-01
                       8.2614132883E-32  5.0000000000E-01  5.4064400000E-01
                       5.0000000000E-01  4.4307255740E-32  6.2005500000E-01
                      -2.1580505234E-32  5.0000000000E-01  7.0134400000E-01
                       5.0000000000E-01  1.4067353567E-31  7.8075400000E-01
                       1.6084129232E-31  5.0000000000E-01  8.6204300000E-01
                       2.5800961354E-32  5.0000000000E-01  1.3889600000E-01
                       5.0000000000E-01 -3.0918441455E-33  2.1830700000E-01
[...]
    8      0.00000000000000     0.00000000000000    -0.19650413928482
    9     -0.00000000000000    -0.00000000000000     0.66437618872326
   10      0.00000000000000     0.00000000000000     0.68134534725829
   11      0.00000000000000     0.00000000000000    -0.76128384787892
   12      0.00000000000000     0.00000000000000    -0.49882697480584
   13      0.00000000000000    -0.00000000000000     0.07404988362218
   14      0.00000000000000     0.00000000000000     0.03715817055023
   15      0.00000000000000     0.00000000000000    -0.10130716524460
   16     -0.00000000000000     0.00000000000000     0.10130716524460
   17      0.00000000000000     0.00000000000000    -0.03715817055023
   18      0.00000000000000     0.00000000000000    -0.07404988362218
   19      0.00000000000000     0.00000000000000     0.49882697480584
   20     -0.00000000000000    -0.00000000000000     0.76128384787892
 frms,max,avg= 2.4480222E-01 7.6128385E-01   0.000E+00  0.000E+00  0.000E+00 e/A
 length scales=  7.762431680422  7.762431680422  7.762431680422 bohr
              =  4.107701928516  4.107701928516  4.107701928516 angstroms
 prteigrs : about to open file Cs2TiI6o_EIG
 Fermi (or HOMO) energy (hartree) =   0.17487   Average Vxc (hartree)=  -0.33782
 Eigenvalues (hartree) for nkpt=  10  k points:
 kpt#   1, nband=153, wtk=  0.06250, kpt=  0.0625  0.0625  0.5000 (reduced coord)
  -1.64423   -1.64370   -1.64338   -1.64296   -1.64236   -1.64211   -1.64195   -1.64152
  -1.64144   -1.64103   -1.64004   -1.63974   -1.63912   -1.63892   -1.63819   -1.63819
  -1.63812   -1.63794   -1.63733   -1.63723   -1.63644   -1.63611   -1.63601   -1.63596
  -1.63566   -1.63566   -1.63537   -1.63529   -1.63508   -1.63468   -1.63432   -1.63391
  -1.63271   -1.63249   -1.63201   -1.63118   -1.62803   -1.62778   -1.62567   -1.62473
  -1.61501   -1.61456   -1.61438   -1.61414   -1.61340   -1.61124   -1.61018   -1.60984
  -1.60964   -1.60894   -0.63672   -0.63670   -0.63544   -0.63532   -0.63523   -0.63509
  -0.63506   -0.63476   -0.63419   -0.63415   -0.63395   -0.63384   -0.63381   -0.63345
  -0.63335   -0.63323   -0.63314   -0.63269   -0.63265   -0.63259   -0.63242   -0.63238
  -0.63223   -0.63199   -0.63188   -0.63186   -0.63146   -0.63135   -0.63079   -0.63074
  -0.62904   -0.62891   -0.62827   -0.62816   -0.62816   -0.62807   -0.62741   -0.62724
  -0.62666   -0.62663   -0.62651   -0.62650   -0.62623   -0.62619   -0.62618   -0.62616
  -0.62578   -0.62570   -0.62563   -0.62547   -0.39249   -0.38838   -0.38166   -0.37288
  -0.36303   -0.35104   -0.33937   -0.32908   -0.31982   -0.31908   -0.11078   -0.11077
  -0.10284   -0.09920   -0.08835   -0.08090   -0.06767   -0.06109   -0.04632   -0.03449
  -0.02244   -0.01606   -0.00572   -0.00065    0.00275    0.00747    0.01711    0.01777
   0.02080    0.02739    0.02892    0.03430    0.04160    0.04255    0.05402    0.05541
   0.05736    0.05982    0.06493    0.06715    0.07235    0.07262    0.07454    0.09129
   0.09304    0.09776    0.10487    0.13023    0.14241    0.15597    0.23211    0.23888
   0.26636
 prteigrs : prtvol=0 or 1, do not print more k-points.

--- !EnergyTerms
iteration_state     : {dtset: 1, }
comment             : Components of total free energy in Hartree
kinetic             :  1.21604114774213E+03
hartree             :  2.45794992364037E+03
xc                  : -4.58789182535318E+02
Ewald energy        :  8.18009972979471E+02
psp_core            :  4.84361555516399E+01
local_psp           : -5.35389772002171E+03
non_local_psp       : -7.16874503327466E+02
VdWaals_dft_d       : -2.89368222035979E-01
total_energy        : -1.98941357419292E+03
...

--- !EnergyTermsDC
iteration_state     : {dtset: 1, }
comment             : '"Double-counting" decomposition of free energy'
band_energy         : -2.31897842552716E+02
Ewald energy        :  8.18009972979471E+02
psp_core            :  4.84361555516399E+01
xc_dc               : -2.62367252676460E+03
VdWaals_dft_d       : -2.89368222035979E-01
total_energy_dc     : -1.98941360900824E+03
...

 Cartesian components of stress tensor (hartree/bohr^3)
  sigma(1 1)=  1.48569188E-02  sigma(3 2)=  0.00000000E+00
  sigma(2 2)=  1.48569188E-02  sigma(3 1)=  0.00000000E+00
  sigma(3 3)=  1.44949116E-02  sigma(2 1)=  0.00000000E+00

-Cartesian components of stress tensor (GPa)         [Pressure= -4.3356E+02 GPa]
- sigma(1 1)=  4.37105568E+02  sigma(3 2)=  0.00000000E+00
- sigma(2 2)=  4.37105568E+02  sigma(3 1)=  0.00000000E+00
- sigma(3 3)=  4.26454950E+02  sigma(2 1)=  0.00000000E+00

== END DATASET(S) ==============================================================

 -outvars: echo values of variables after computation  --------
            acell      7.7624316804E+00  7.7624316804E+00  7.7624316804E+00 Bohr
              amu      1.18710000E+02  7.89600000E+01
           diemac      1.20000000E+01
             ecut      2.25000000E+01 Hartree
           etotal     -1.9894136090E+03
            fcart      7.1137841386E-32  8.1300390156E-32 -1.3250058534E-02
                       7.1137841386E-32  8.1300390156E-32 -1.2920060913E-02
                      -3.3536410939E-31  8.1300390156E-32  3.8213974136E-03
                       7.1137841386E-32  8.1300390156E-32 -1.2660351024E-03
                      -1.1483680110E-30 -1.5447074130E-30  1.2075365480E-03
                       7.1137841386E-32  8.1300390156E-32 -1.2075365480E-03
                       2.7438881678E-31  8.1300390156E-32  1.2660351024E-03
                       1.6971456445E-30  1.7073081933E-30 -3.8213974136E-03
                      -1.1483680110E-30 -1.5447074130E-30  1.2920060913E-02
                       7.1137841386E-32  8.1300390156E-32  1.3250058534E-02
                       7.1137841386E-32  8.9430429171E-31 -1.4804614996E-02
                       7.1137841386E-32  8.1300390156E-32 -9.7006410058E-03
                       7.1137841386E-32 -7.3170351140E-31  1.4400410840E-03
                       7.1137841386E-32  8.1300390156E-32  7.2261142870E-04
                       1.6971456445E-30  8.9430429171E-31 -1.9701108621E-03
                      -3.3536410939E-31  8.1300390156E-32  1.9701108621E-03
                       7.1137841386E-32  8.1300390156E-32 -7.2261142870E-04
                       7.1137841386E-32  8.1300390156E-32 -1.4400410840E-03
                       7.1137841386E-32  8.1300390156E-32  9.7006410058E-03
                      -1.5548699617E-30 -7.3170351140E-31  1.4804614996E-02
-          fftalg         112
             iscf          17
              ixc          11
              kpt      6.25000000E-02  6.25000000E-02  5.00000000E-01
                       1.87500000E-01  6.25000000E-02  5.00000000E-01
                       3.12500000E-01  6.25000000E-02  5.00000000E-01
                       4.37500000E-01  6.25000000E-02  5.00000000E-01
                       1.87500000E-01  1.87500000E-01  5.00000000E-01
                       3.12500000E-01  1.87500000E-01  5.00000000E-01
                       4.37500000E-01  1.87500000E-01  5.00000000E-01
                       3.12500000E-01  3.12500000E-01  5.00000000E-01
                       4.37500000E-01  3.12500000E-01  5.00000000E-01
                       4.37500000E-01  4.37500000E-01  5.00000000E-01
         kptrlatt        8    0    0      0    8    0      0    0    1
          kptrlen      6.20994534E+01
P           mkmem           2
            natom          20
            nband         153
            ngfft          36      36     288
             nkpt          10
            nstep         150
             nsym          16
           ntypat           2
              occ      2.000000  2.000000  2.000000  2.000000  2.000000  2.000000
                       2.000000  2.000000  2.000000  2.000000  2.000000  2.000000
                       2.000000  2.000000  2.000000  2.000000  2.000000  2.000000
                       2.000000  2.000000  2.000000  2.000000  2.000000  2.000000
                       2.000000  2.000000  2.000000  2.000000  2.000000  2.000000
                       2.000000  2.000000  2.000000  2.000000  2.000000  2.000000
                       2.000000  2.000000  2.000000  2.000000  2.000000  2.000000
                       2.000000  2.000000  2.000000  2.000000  2.000000  2.000000
                       2.000000  2.000000  2.000000  2.000000  2.000000  2.000000
                       2.000000  2.000000  2.000000  2.000000  2.000000  2.000000
                       2.000000  2.000000  2.000000  2.000000  2.000000  2.000000
                       2.000000  2.000000  2.000000  2.000000  2.000000  2.000000
                       2.000000  2.000000  2.000000  2.000000  2.000000  2.000000
                       2.000000  2.000000  2.000000  2.000000  2.000000  2.000000
                       2.000000  2.000000  2.000000  2.000000  2.000000  2.000000
                       2.000000  2.000000  2.000000  2.000000  2.000000  2.000000
                       2.000000  2.000000  2.000000  2.000000  2.000000  2.000000
                       2.000000  2.000000  2.000000  2.000000  2.000000  2.000000
                       2.000000  2.000000  2.000000  2.000000  2.000000  2.000000
                       2.000000  2.000000  2.000000  2.000000  2.000000  2.000000
                       2.000000  2.000000  2.000000  2.000000  2.000000  2.000000
                       2.000000  2.000000  2.000000  2.000000  2.000000  2.000000
                       2.000000  2.000000  2.000000  2.000000  2.000000  2.000000
                       2.000000  2.000000  2.000000  2.000000  2.000000  2.000000
                       2.000000  2.000000  2.000000  2.000000  2.000000  2.000000
                       0.000000  0.000000  0.000000
           prtcif           1
            rprim      1.0000000000E+00  0.0000000000E+00  0.0000000000E+00
                       0.0000000000E+00  1.0000000000E+00  0.0000000000E+00
                       1.0000000000E-15  1.0000000000E-15  8.2346474988E+00
           shiftk      5.00000000E-01  5.00000000E-01  5.00000000E-01
          spgroup         129
           strten      1.4856918779E-02  1.4856918779E-02  1.4494911569E-02
                       0.0000000000E+00  0.0000000000E+00  0.0000000000E+00
           symrel      1  0  0   0  1  0   0  0  1      -1  0  0   0 -1  0   0  0 -1
                      -1  0  0   0  1  0   0  0 -1       1  0  0   0 -1  0   0  0  1
                      -1  0  0   0 -1  0   0  0  1       1  0  0   0  1  0   0  0 -1
                       1  0  0   0 -1  0   0  0 -1      -1  0  0   0  1  0   0  0  1
                       0  1  0   1  0  0   0  0  1       0 -1  0  -1  0  0   0  0 -1
                       0 -1  0   1  0  0   0  0 -1       0  1  0  -1  0  0   0  0  1
                       0 -1  0  -1  0  0   0  0  1       0  1  0   1  0  0   0  0 -1
                       0  1  0  -1  0  0   0  0 -1       0 -1  0   1  0  0   0  0  1
            tnons      0.0000000  0.0000000  0.0000000     0.5000000  0.5000000 -0.0000000
                       0.5000000  0.5000000 -0.0000000     0.0000000  0.0000000  0.0000000
                       0.0000000  0.0000000  0.0000000     0.5000000  0.5000000 -0.0000000
                       0.5000000  0.5000000 -0.0000000     0.0000000  0.0000000  0.0000000
                       0.5000000  0.5000000  0.0000000     0.0000000 -0.0000000 -0.0000000
                       0.0000000 -0.0000000 -0.0000000     0.5000000  0.5000000  0.0000000
                       0.5000000  0.5000000  0.0000000     0.0000000 -0.0000000 -0.0000000
                       0.0000000 -0.0000000 -0.0000000     0.5000000  0.5000000  0.0000000
           toldfe      1.00000000E-06 Hartree
            typat      1  1  1  1  1  1  1  1  1  1  2  2  2  2  2  2  2  2  2  2
           vdw_xc           5
              wtk        0.06250    0.12500    0.12500    0.12500    0.06250    0.12500
                         0.12500    0.06250    0.12500    0.06250
           xangst      2.0538509643E+00  5.6668623495E-16  4.6664613872E+00
                       9.0059721702E-16  2.0538509643E+00  7.4161006205E+00
                       2.0538509643E+00  1.2267898272E-15  1.0102181782E+01
                       1.5607008092E-15  2.0538509643E+00  1.2851821015E+01
                       2.0538509643E+00  1.8868975271E-15  1.5537936002E+01
                       2.2208044014E-15  2.0538509643E+00  1.8287541410E+01
                       2.0538509643E+00  2.5470011193E-15  2.0973656396E+01
                       2.8809121014E-15  2.0538509643E+00  2.3723295630E+01
                       2.0538509643E+00  3.2071047115E-15  2.6409376791E+01
                       3.5410156936E-15  2.0538509643E+00  2.9159016024E+01
                       5.7054336706E-16  2.0538509643E+00  4.6982235105E+00
                       2.0538509643E+00  8.9674008491E-16  7.3843384972E+00
                       1.2306510670E-15  2.0538509643E+00  1.0133977731E+01
                       2.0538509643E+00  1.5568436771E-15  1.2820058892E+01
                       1.8907546592E-15  2.0538509643E+00  1.5569698125E+01
                       2.0538509643E+00  2.2169472693E-15  1.8255779286E+01
                       2.5508582514E-15  2.0538509643E+00  2.1005418520E+01
                       2.0538509643E+00  2.8770508615E-15  2.3691499681E+01
                       3.2109618436E-15  2.0538509643E+00  2.6441138914E+01
                       2.0538509643E+00  3.5371585615E-15  2.9127253901E+01
            xcart      3.8812158402E+00  1.0708817873E-15  8.8183340316E+00
                       1.7018820962E-15  3.8812158402E+00  1.4014399147E+01
                       3.8812158402E+00  2.3182967959E-15  1.9090356912E+01
                       2.9492971048E-15  3.8812158402E+00  2.4286422027E+01
                       3.8812158402E+00  3.5657195670E-15  2.9362443714E+01
                       4.1967121134E-15  3.8812158402E+00  3.4558444908E+01
                       3.8812158402E+00  4.8131345756E-15  3.9634466594E+01
                       5.4441348845E-15  3.8812158402E+00  4.4830531709E+01
                       3.8812158402E+00  6.0605495842E-15  4.9906489475E+01
                       6.6915498931E-15  3.8812158402E+00  5.5102554590E+01
                       1.0781707107E-15  3.8812158402E+00  8.8783557460E+00
                       3.8812158402E+00  1.6945931729E-15  1.3954377432E+01
                       2.3255934817E-15  3.8812158402E+00  1.9150442547E+01
                       3.8812158402E+00  2.9420081815E-15  2.4226400313E+01
                       3.5730084903E-15  3.8812158402E+00  2.9422465428E+01
                       3.8812158402E+00  4.1894231901E-15  3.4498423194E+01
                       4.8204234990E-15  3.8812158402E+00  3.9694488309E+01
                       3.8812158402E+00  5.4368381987E-15  4.4770446074E+01
                       6.0678385076E-15  3.8812158402E+00  4.9966511189E+01
                       3.8812158402E+00  6.6842609697E-15  5.5042532876E+01
             xred      5.0000000000E-01  2.4353571625E-32  1.3795700000E-01
                       5.0797376041E-32  5.0000000000E-01  2.1924600000E-01
                       5.0000000000E-01  2.7935998402E-32  2.9865600000E-01
                       5.0759962419E-33  5.0000000000E-01  3.7994500000E-01
                       5.0000000000E-01  1.2723263435E-31  4.5935600000E-01
                       8.2614132883E-32  5.0000000000E-01  5.4064400000E-01
                       5.0000000000E-01  4.4307255740E-32  6.2005500000E-01
                      -2.1580505234E-32  5.0000000000E-01  7.0134400000E-01
                       5.0000000000E-01  1.4067353567E-31  7.8075400000E-01
                       1.6084129232E-31  5.0000000000E-01  8.6204300000E-01
                       2.5800961354E-32  5.0000000000E-01  1.3889600000E-01
                       5.0000000000E-01 -3.0918441455E-33  2.1830700000E-01
                       2.9628008034E-32  5.0000000000E-01  2.9959600000E-01
                       5.0000000000E-01  2.5142485920E-32  3.7900600000E-01
                       5.1586290336E-32  5.0000000000E-01  4.6029500000E-01
                       5.0000000000E-01  5.9652863747E-32  5.3970500000E-01
                       1.7842823355E-31  5.0000000000E-01  6.2099400000E-01
                       5.0000000000E-01  1.3091495263E-31  7.0040400000E-01
                       1.6363480480E-31  5.0000000000E-01  7.8169300000E-01
                       5.0000000000E-01  1.3788002319E-31  8.6110400000E-01
            znucl       50.00000   34.00000

- Timing analysis has been suppressed with timopt=0

 Suggested references for the acknowledgment of ABINIT usage.

 Calculation completed.
.Delivered   0 WARNINGs and   0 COMMENTs to log file.