.Version 9.2.2 of ABINIT

 ABINIT is a project of the Universite Catholique de Louvain,
 Corning Inc. and other collaborators, see ~abinit/doc/developers/contributors.txt .
 acknowledgments of the ABINIT effort.

.Starting date : Wed 28 Feb 2024.
- ( at 08h47 )

- The starting date is more than 3 years after the initial release
- of this version of ABINIT, namely Nov 2020.
- This version of ABINIT is not supported anymore.
- Action: please, switch to a more recent version of ABINIT.
- input  file    -> Cs2TiI6.in
- output file    -> Cs2TiI6.out
- root for input  files -> Cs2TiI6i
- root for output files -> Cs2TiI6o

 Symmetries : space group P4/n m m (#129); Bravais tP (primitive tetrag.)
     intxc =       0    ionmov =       0      iscf =      17    lmnmax =       6
     lnmax =       6     mgfft =     240  mpssoang =       3    mqgrid =   11456
     natom =      16  nloc_mem =       1    nspden =       1   nspinor =       1
    nsppol =       1      nsym =      16    n1xccc =    2501    ntypat =       2
    occopt =       1   xclevel =       2
-    mband =         122        mffmem =           1         mkmem =           2
       mpw =       16508          nfft =      311040          nkpt =          10
  Rough estimation (10% accuracy) of disk space for files :

------------- Echo of variables that govern the present computation ------------
-
- outvars: echo of selected default values
-   iomode0 =  0 , fftalg0 =112 , wfoptalg0 =  0
-
- outvars: echo of global parameters not present in the input file
-  max_nthreads =    0
-
 -outvars: echo values of preprocessed input variables --------
            acell      7.7624316804E+00  7.7624316804E+00  7.7624316804E+00 Bohr
              amu      1.18710000E+02  7.89600000E+01
           diemac      1.20000000E+01
             ecut      2.25000000E+01 Hartree
-          fftalg         112
             iscf          17
              ixc          11
              kpt      6.25000000E-02  6.25000000E-02  5.00000000E-01
                       1.87500000E-01  6.25000000E-02  5.00000000E-01
                       3.12500000E-01  6.25000000E-02  5.00000000E-01
                       4.37500000E-01  6.25000000E-02  5.00000000E-01
                       1.87500000E-01  1.87500000E-01  5.00000000E-01
                       3.12500000E-01  1.87500000E-01  5.00000000E-01
                       4.37500000E-01  1.87500000E-01  5.00000000E-01
                       3.12500000E-01  3.12500000E-01  5.00000000E-01
                       4.37500000E-01  3.12500000E-01  5.00000000E-01
                       4.37500000E-01  4.37500000E-01  5.00000000E-01
         kptrlatt        8    0    0      0    8    0      0    0    1
          kptrlen      6.20994534E+01
P           mkmem           2
            natom          16
            nband         122
            ngfft          36      36     240
             nkpt          10
            nstep         150
             nsym          16
           ntypat           2
              occ      2.000000  2.000000  2.000000  2.000000  2.000000  2.000000
                       2.000000  2.000000  2.000000  2.000000  2.000000  2.000000
                       2.000000  2.000000  2.000000  2.000000  2.000000  2.000000
                       2.000000  2.000000  2.000000  2.000000  2.000000  2.000000
                       2.000000  2.000000  2.000000  2.000000  2.000000  2.000000
                       2.000000  2.000000  2.000000  2.000000  2.000000  2.000000
                       2.000000  2.000000  2.000000  2.000000  2.000000  2.000000
                       2.000000  2.000000  2.000000  2.000000  2.000000  2.000000
                       2.000000  2.000000  2.000000  2.000000  2.000000  2.000000
                       2.000000  2.000000  2.000000  2.000000  2.000000  2.000000
                       2.000000  2.000000  2.000000  2.000000  2.000000  2.000000
                       2.000000  2.000000  2.000000  2.000000  2.000000  2.000000
                       2.000000  2.000000  2.000000  2.000000  2.000000  2.000000
                       2.000000  2.000000  2.000000  2.000000  2.000000  2.000000
                       2.000000  2.000000  2.000000  2.000000  2.000000  2.000000
                       2.000000  2.000000  2.000000  2.000000  2.000000  2.000000
                       2.000000  2.000000  2.000000  2.000000  2.000000  2.000000
                       2.000000  2.000000  2.000000  2.000000  2.000000  2.000000
                       2.000000  2.000000  2.000000  2.000000  2.000000  2.000000
                       2.000000  2.000000  2.000000  2.000000  2.000000  2.000000
                       0.000000  0.000000
           prtcif           1
            rprim      1.0000000000E+00  0.0000000000E+00  0.0000000000E+00
                       0.0000000000E+00  1.0000000000E+00  0.0000000000E+00
                       0.0000000000E+00  0.0000000000E+00  6.9113460519E+00
           shiftk      5.00000000E-01  5.00000000E-01  5.00000000E-01
          spgroup         129
           symrel      1  0  0   0  1  0   0  0  1      -1  0  0   0 -1  0   0  0 -1
                      -1  0  0   0  1  0   0  0 -1       1  0  0   0 -1  0   0  0  1
                      -1  0  0   0 -1  0   0  0  1       1  0  0   0  1  0   0  0 -1
                       1  0  0   0 -1  0   0  0 -1      -1  0  0   0  1  0   0  0  1
                       0  1  0   1  0  0   0  0  1       0 -1  0  -1  0  0   0  0 -1
                       0 -1  0   1  0  0   0  0 -1       0  1  0  -1  0  0   0  0  1
                       0 -1  0  -1  0  0   0  0  1       0  1  0   1  0  0   0  0 -1
                       0  1  0  -1  0  0   0  0 -1       0 -1  0   1  0  0   0  0  1
            tnons      0.0000000  0.0000000  0.0000000     0.5000000  0.5000000 -0.0000000
                       0.5000000  0.5000000 -0.0000000     0.0000000  0.0000000  0.0000000
                      -0.0000000  0.0000000  0.0000000     0.5000000  0.5000000 -0.0000000
                       0.5000000  0.5000000 -0.0000000    -0.0000000  0.0000000  0.0000000
                       0.5000000  0.5000000  0.0000000     0.0000000 -0.0000000 -0.0000000
                       0.0000000 -0.0000000 -0.0000000     0.5000000  0.5000000  0.0000000
                       0.5000000  0.5000000  0.0000000     0.0000000  0.0000000 -0.0000000
                       0.0000000  0.0000000 -0.0000000     0.5000000  0.5000000  0.0000000
           toldfe      1.00000000E-06 Hartree
            typat      1  1  1  1  1  1  1  1  2  2  2  2  2  2  2  2
           vdw_xc           5
              wtk        0.06250    0.12500    0.12500    0.12500    0.06250    0.12500
                         0.12500    0.06250    0.12500    0.06250
           xangst      2.0538509643E+00  0.0000000000E+00  4.6664799058E+00
                       0.0000000000E+00  2.0538509643E+00  7.4160839249E+00
                       2.0538509643E+00  0.0000000000E+00  1.0102208464E+01
                       0.0000000000E+00  2.0538509643E+00  1.2851812483E+01
                       2.0538509643E+00  0.0000000000E+00  1.5537937023E+01
                       0.0000000000E+00  2.0538509643E+00  1.8287541042E+01
                       2.0538509643E+00  0.0000000000E+00  2.0973665581E+01
                       0.0000000000E+00  2.0538509643E+00  2.3723269600E+01
                       0.0000000000E+00  2.0538509643E+00  4.6982196457E+00
                       2.0538509643E+00  0.0000000000E+00  7.3843441850E+00
                       0.0000000000E+00  2.0538509643E+00  1.0133948204E+01
                       2.0538509643E+00  0.0000000000E+00  1.2820072743E+01
                       0.0000000000E+00  2.0538509643E+00  1.5569676763E+01
                       2.0538509643E+00  0.0000000000E+00  1.8255801302E+01
                       0.0000000000E+00  2.0538509643E+00  2.1005405321E+01
                       2.0538509643E+00  0.0000000000E+00  2.3691529860E+01
            xcart      3.8812158402E+00  0.0000000000E+00  8.8183690266E+00
                       0.0000000000E+00  3.8812158402E+00  1.4014367597E+01
                       3.8812158402E+00  0.0000000000E+00  1.9090407335E+01
                       0.0000000000E+00  3.8812158402E+00  2.4286405905E+01
                       3.8812158402E+00  0.0000000000E+00  2.9362445643E+01
                       0.0000000000E+00  3.8812158402E+00  3.4558444213E+01
                       3.8812158402E+00  0.0000000000E+00  3.9634483951E+01
                       0.0000000000E+00  3.8812158402E+00  4.4830482521E+01
                       0.0000000000E+00  3.8812158402E+00  8.8783484426E+00
                       3.8812158402E+00  0.0000000000E+00  1.3954388181E+01
                       0.0000000000E+00  3.8812158402E+00  1.9150386751E+01
                       3.8812158402E+00  0.0000000000E+00  2.4226426489E+01
                       0.0000000000E+00  3.8812158402E+00  2.9422425059E+01
                       3.8812158402E+00  0.0000000000E+00  3.4498464797E+01
                       0.0000000000E+00  3.8812158402E+00  3.9694463367E+01
                       3.8812158402E+00  0.0000000000E+00  4.4770503105E+01
             xred      5.0000000000E-01  0.0000000000E+00  1.6437200000E-01
                       0.0000000000E+00  5.0000000000E-01  2.6122400000E-01
                       5.0000000000E-01  0.0000000000E+00  3.5584000000E-01
                       0.0000000000E+00  5.0000000000E-01  4.5269200000E-01
                       5.0000000000E-01  0.0000000000E+00  5.4730800000E-01
                       0.0000000000E+00  5.0000000000E-01  6.4416000000E-01
                       5.0000000000E-01  0.0000000000E+00  7.3877600000E-01
                       0.0000000000E+00  5.0000000000E-01  8.3562800000E-01
                       0.0000000000E+00  5.0000000000E-01  1.6549000000E-01
                       5.0000000000E-01  0.0000000000E+00  2.6010600000E-01
                       0.0000000000E+00  5.0000000000E-01  3.5695800000E-01
                       5.0000000000E-01  0.0000000000E+00  4.5157400000E-01
                       0.0000000000E+00  5.0000000000E-01  5.4842600000E-01
                       5.0000000000E-01  0.0000000000E+00  6.4304200000E-01
                       0.0000000000E+00  5.0000000000E-01  7.3989400000E-01
                       5.0000000000E-01  0.0000000000E+00  8.3451000000E-01
            znucl       50.00000   34.00000

 chkinp: Checking input parameters for consistency.

== DATASET  1 ==================================================================
-   mpi_nproc: 6, omp_nthreads: -1 (-1 if OMP is not activated)

--- !DatasetInfo
iteration_state: {dtset: 1, }
dimensions: {natom: 16, nkpt: 10, mband: 122, nsppol: 1, nspinor: 1, nspden: 1, mpw: 16508, }
cutoff_energies: {ecut:  22.5, pawecutdg:  -1.0, }
electrons: {nelect:   2.40000000E+02, charge:   0.00000000E+00, occopt:   1.00000000E+00, tsmear:   1.00000000E-02, }
meta: {optdriver: 0, ionmov: 0, optcell: 0, iscf: 17, paral_kgb: 0, }
...

 Real(R)+Recip(G) space primitive vectors, cartesian coordinates (Bohr,Bohr^-1):
 R(1)=  7.7624317  0.0000000  0.0000000  G(1)=  0.1288256  0.0000000  0.0000000
[...]
   10      2.05385096425820     0.00000000000000     7.38434418499518
   11      0.00000000000000     2.05385096425820    10.13394820414566
   12      2.05385096425820     0.00000000000000    12.82007274340082
   13      0.00000000000000     2.05385096425820    15.56967676255129
   14      2.05385096425820     0.00000000000000    18.25580130180646
   15      0.00000000000000     2.05385096425820    21.00540532095694
   16      2.05385096425820     0.00000000000000    23.69152986021210

 cartesian forces (hartree/bohr) at end:
    1     -0.00000000000000     0.00000000000000    -0.01311257474052
    2     -0.00000000000000     0.00000000000000    -0.01288479777137
    3     -0.00000000000000    -0.00000000000000     0.00369206151798
    4     -0.00000000000000     0.00000000000000    -0.00200844496621
    5      0.00000000000000     0.00000000000000     0.00200844496621
    6     -0.00000000000000     0.00000000000000    -0.00369206151798
    7     -0.00000000000000     0.00000000000000     0.01288479777137
    8     -0.00000000000000    -0.00000000000000     0.01311257474052
    9     -0.00000000000000     0.00000000000000    -0.01528981486213
   10      0.00000000000000     0.00000000000000    -0.00910551145631
   11      0.00000000000000     0.00000000000000     0.00082085980047
   12     -0.00000000000000    -0.00000000000000     0.00103948787000
   13     -0.00000000000000     0.00000000000000    -0.00103948787000
   14     -0.00000000000000     0.00000000000000    -0.00082085980047
   15     -0.00000000000000    -0.00000000000000     0.00910551145631
   16      0.00000000000000     0.00000000000000     0.01528981486213
 frms,max,avg= 5.2996302E-03 1.5289815E-02   0.000E+00  0.000E+00  0.000E+00 h/b

 cartesian forces (eV/Angstrom) at end:
    1     -0.00000000000000     0.00000000000000    -0.67427564691998
    2     -0.00000000000000     0.00000000000000    -0.66256288521819
    3     -0.00000000000000    -0.00000000000000     0.18985342068732
    4     -0.00000000000000     0.00000000000000    -0.10327838397049
    5      0.00000000000000     0.00000000000000     0.10327838397049
    6     -0.00000000000000     0.00000000000000    -0.18985342068732
    7     -0.00000000000000     0.00000000000000     0.66256288521819
    8     -0.00000000000000    -0.00000000000000     0.67427564691998
    9     -0.00000000000000     0.00000000000000    -0.78623382603793
   10      0.00000000000000     0.00000000000000    -0.46822418550406
   11      0.00000000000000     0.00000000000000     0.04221030453166
   12     -0.00000000000000    -0.00000000000000     0.05345261093873
   13     -0.00000000000000     0.00000000000000    -0.05345261093873
   14     -0.00000000000000     0.00000000000000    -0.04221030453166
   15     -0.00000000000000    -0.00000000000000     0.46822418550406
   16      0.00000000000000     0.00000000000000     0.78623382603793
 frms,max,avg= 2.7251792E-01 7.8623383E-01   0.000E+00  0.000E+00  0.000E+00 e/A
 length scales=  7.762431680422  7.762431680422  7.762431680422 bohr
              =  4.107701928516  4.107701928516  4.107701928516 angstroms
 prteigrs : about to open file Cs2TiI6o_EIG
 Fermi (or HOMO) energy (hartree) =   0.15951   Average Vxc (hartree)=  -0.32561
 Eigenvalues (hartree) for nkpt=  10  k points:
 kpt#   1, nband=122, wtk=  0.06250, kpt=  0.0625  0.0625  0.5000 (reduced coord)
  -1.66077   -1.65954   -1.65882   -1.65748   -1.65745   -1.65676   -1.65650   -1.65590
  -1.65513   -1.65497   -1.65397   -1.65352   -1.65342   -1.65340   -1.65277   -1.65272
  -1.65227   -1.65220   -1.65212   -1.65132   -1.65098   -1.65035   -1.64984   -1.64910
  -1.64893   -1.64833   -1.64798   -1.64483   -1.64255   -1.64247   -1.63102   -1.63012
  -1.62996   -1.62969   -1.62895   -1.62665   -1.62632   -1.62566   -1.62527   -1.62490
  -0.65296   -0.65271   -0.65130   -0.65107   -0.65103   -0.65103   -0.65056   -0.65029
  -0.65000   -0.65000   -0.64988   -0.64919   -0.64905   -0.64899   -0.64863   -0.64843
  -0.64789   -0.64781   -0.64733   -0.64711   -0.64507   -0.64484   -0.64401   -0.64393
  -0.64384   -0.64384   -0.64343   -0.64284   -0.64257   -0.64255   -0.64239   -0.64226
  -0.64216   -0.64213   -0.64200   -0.64185   -0.64161   -0.64158   -0.64151   -0.64124
  -0.40778   -0.40103   -0.39078   -0.37849   -0.36343   -0.34921   -0.33632   -0.33471
  -0.12540   -0.12483   -0.11246   -0.10691   -0.08854   -0.08329   -0.06265   -0.05358
  -0.03225   -0.02844   -0.02082   -0.01266   -0.00094   -0.00058    0.00340    0.01321
   0.01486    0.02442    0.02893    0.03244    0.04246    0.04396    0.04688    0.05514
   0.05559    0.05874    0.07144    0.07724    0.08199    0.09673    0.12767    0.13359
   0.21984    0.22083
 prteigrs : prtvol=0 or 1, do not print more k-points.

--- !EnergyTerms
iteration_state     : {dtset: 1, }
comment             : Components of total free energy in Hartree
kinetic             :  9.72775739555614E+02
hartree             :  1.90057116220550E+03
xc                  : -3.67002721665269E+02
Ewald energy        :  5.94046025042154E+02
psp_core            :  3.69344820919736E+01
local_psp           : -4.15511994388783E+03
non_local_psp       : -5.73503507334573E+02
VdWaals_dft_d       : -2.25983389588033E-01
total_energy        : -1.59152474738201E+03
...

--- !EnergyTermsDC
iteration_state     : {dtset: 1, }
comment             : '"Double-counting" decomposition of free energy'
band_energy         : -1.89119197830657E+02
Ewald energy        :  5.94046025042154E+02
psp_core            :  3.69344820919736E+01
xc_dc               : -2.03316006872866E+03
VdWaals_dft_d       : -2.25983389588033E-01
total_energy_dc     : -1.59152474281478E+03
...

 Cartesian components of stress tensor (hartree/bohr^3)
  sigma(1 1)=  1.41639835E-02  sigma(3 2)=  0.00000000E+00
  sigma(2 2)=  1.41639835E-02  sigma(3 1)=  0.00000000E+00
  sigma(3 3)=  1.38518556E-02  sigma(2 1)=  0.00000000E+00

-Cartesian components of stress tensor (GPa)         [Pressure= -4.1366E+02 GPa]
- sigma(1 1)=  4.16718712E+02  sigma(3 2)=  0.00000000E+00
- sigma(2 2)=  4.16718712E+02  sigma(3 1)=  0.00000000E+00
- sigma(3 3)=  4.07535595E+02  sigma(2 1)=  0.00000000E+00

== END DATASET(S) ==============================================================

 -outvars: echo values of variables after computation  --------
            acell      7.7624316804E+00  7.7624316804E+00  7.7624316804E+00 Bohr
              amu      1.18710000E+02  7.89600000E+01
           diemac      1.20000000E+01
             ecut      2.25000000E+01 Hartree
           etotal     -1.5915247428E+03
            fcart     -2.5406371924E-32  8.8922301733E-32 -1.3112574741E-02
                      -2.5406371924E-32  8.8922301733E-32 -1.2884797771E-02
                      -1.0416612489E-30 -1.5370855014E-30  3.6920615180E-03
                      -2.5406371924E-32  8.8922301733E-32 -2.0084449662E-03
                       9.9084850502E-31  1.7149301049E-30  2.0084449662E-03
                      -2.5406371924E-32  8.8922301733E-32 -3.6920615180E-03
                      -2.5406371924E-32  8.8922301733E-32  1.2884797771E-02
                      -2.5406371924E-32 -7.2408159983E-31  1.3112574741E-02
                      -2.5406371924E-32  8.8922301733E-32 -1.5289814862E-02
                       7.8759752964E-31  9.0192620329E-31 -9.1055114563E-03
                       1.6006014312E-30  1.1051771787E-30  8.2085980047E-04
                      -4.3190832270E-31 -7.2408159983E-31  1.0394878700E-03
                      -2.5406371924E-32  4.9542425251E-31 -1.0394878700E-03
                      -4.3190832270E-31  8.8922301733E-32 -8.2085980047E-04
                      -1.6514141750E-30 -1.9435874522E-30  9.1055114563E-03
                       3.8109557886E-31  8.8922301733E-32  1.5289814862E-02
-          fftalg         112
             iscf          17
              ixc          11
              kpt      6.25000000E-02  6.25000000E-02  5.00000000E-01
                       1.87500000E-01  6.25000000E-02  5.00000000E-01
                       3.12500000E-01  6.25000000E-02  5.00000000E-01
                       4.37500000E-01  6.25000000E-02  5.00000000E-01
                       1.87500000E-01  1.87500000E-01  5.00000000E-01
                       3.12500000E-01  1.87500000E-01  5.00000000E-01
                       4.37500000E-01  1.87500000E-01  5.00000000E-01
                       3.12500000E-01  3.12500000E-01  5.00000000E-01
                       4.37500000E-01  3.12500000E-01  5.00000000E-01
                       4.37500000E-01  4.37500000E-01  5.00000000E-01
         kptrlatt        8    0    0      0    8    0      0    0    1
          kptrlen      6.20994534E+01
P           mkmem           2
            natom          16
            nband         122
            ngfft          36      36     240
             nkpt          10
            nstep         150
             nsym          16
           ntypat           2
              occ      2.000000  2.000000  2.000000  2.000000  2.000000  2.000000
                       2.000000  2.000000  2.000000  2.000000  2.000000  2.000000
                       2.000000  2.000000  2.000000  2.000000  2.000000  2.000000
                       2.000000  2.000000  2.000000  2.000000  2.000000  2.000000
                       2.000000  2.000000  2.000000  2.000000  2.000000  2.000000
                       2.000000  2.000000  2.000000  2.000000  2.000000  2.000000
                       2.000000  2.000000  2.000000  2.000000  2.000000  2.000000
                       2.000000  2.000000  2.000000  2.000000  2.000000  2.000000
                       2.000000  2.000000  2.000000  2.000000  2.000000  2.000000
                       2.000000  2.000000  2.000000  2.000000  2.000000  2.000000
                       2.000000  2.000000  2.000000  2.000000  2.000000  2.000000
                       2.000000  2.000000  2.000000  2.000000  2.000000  2.000000
                       2.000000  2.000000  2.000000  2.000000  2.000000  2.000000
                       2.000000  2.000000  2.000000  2.000000  2.000000  2.000000
                       2.000000  2.000000  2.000000  2.000000  2.000000  2.000000
                       2.000000  2.000000  2.000000  2.000000  2.000000  2.000000
                       2.000000  2.000000  2.000000  2.000000  2.000000  2.000000
                       2.000000  2.000000  2.000000  2.000000  2.000000  2.000000
                       2.000000  2.000000  2.000000  2.000000  2.000000  2.000000
                       2.000000  2.000000  2.000000  2.000000  2.000000  2.000000
                       0.000000  0.000000
           prtcif           1
            rprim      1.0000000000E+00  0.0000000000E+00  0.0000000000E+00
                       0.0000000000E+00  1.0000000000E+00  0.0000000000E+00
                       0.0000000000E+00  0.0000000000E+00  6.9113460519E+00
           shiftk      5.00000000E-01  5.00000000E-01  5.00000000E-01
          spgroup         129
           strten      1.4163983498E-02  1.4163983498E-02  1.3851855643E-02
                       0.0000000000E+00  0.0000000000E+00  0.0000000000E+00
           symrel      1  0  0   0  1  0   0  0  1      -1  0  0   0 -1  0   0  0 -1
                      -1  0  0   0  1  0   0  0 -1       1  0  0   0 -1  0   0  0  1
                      -1  0  0   0 -1  0   0  0  1       1  0  0   0  1  0   0  0 -1
                       1  0  0   0 -1  0   0  0 -1      -1  0  0   0  1  0   0  0  1
                       0  1  0   1  0  0   0  0  1       0 -1  0  -1  0  0   0  0 -1
                       0 -1  0   1  0  0   0  0 -1       0  1  0  -1  0  0   0  0  1
                       0 -1  0  -1  0  0   0  0  1       0  1  0   1  0  0   0  0 -1
                       0  1  0  -1  0  0   0  0 -1       0 -1  0   1  0  0   0  0  1
            tnons      0.0000000  0.0000000  0.0000000     0.5000000  0.5000000 -0.0000000
                       0.5000000  0.5000000 -0.0000000     0.0000000  0.0000000  0.0000000
                      -0.0000000  0.0000000  0.0000000     0.5000000  0.5000000 -0.0000000
                       0.5000000  0.5000000 -0.0000000    -0.0000000  0.0000000  0.0000000
                       0.5000000  0.5000000  0.0000000     0.0000000 -0.0000000 -0.0000000
                       0.0000000 -0.0000000 -0.0000000     0.5000000  0.5000000  0.0000000
                       0.5000000  0.5000000  0.0000000     0.0000000  0.0000000 -0.0000000
                       0.0000000  0.0000000 -0.0000000     0.5000000  0.5000000  0.0000000
           toldfe      1.00000000E-06 Hartree
            typat      1  1  1  1  1  1  1  1  2  2  2  2  2  2  2  2
           vdw_xc           5
              wtk        0.06250    0.12500    0.12500    0.12500    0.06250    0.12500
                         0.12500    0.06250    0.12500    0.06250
           xangst      2.0538509643E+00  0.0000000000E+00  4.6664799058E+00
                       0.0000000000E+00  2.0538509643E+00  7.4160839249E+00
                       2.0538509643E+00  0.0000000000E+00  1.0102208464E+01
                       0.0000000000E+00  2.0538509643E+00  1.2851812483E+01
                       2.0538509643E+00  0.0000000000E+00  1.5537937023E+01
                       0.0000000000E+00  2.0538509643E+00  1.8287541042E+01
                       2.0538509643E+00  0.0000000000E+00  2.0973665581E+01
                       0.0000000000E+00  2.0538509643E+00  2.3723269600E+01
                       0.0000000000E+00  2.0538509643E+00  4.6982196457E+00
                       2.0538509643E+00  0.0000000000E+00  7.3843441850E+00
                       0.0000000000E+00  2.0538509643E+00  1.0133948204E+01
                       2.0538509643E+00  0.0000000000E+00  1.2820072743E+01
                       0.0000000000E+00  2.0538509643E+00  1.5569676763E+01
                       2.0538509643E+00  0.0000000000E+00  1.8255801302E+01
                       0.0000000000E+00  2.0538509643E+00  2.1005405321E+01
                       2.0538509643E+00  0.0000000000E+00  2.3691529860E+01
            xcart      3.8812158402E+00  0.0000000000E+00  8.8183690266E+00
                       0.0000000000E+00  3.8812158402E+00  1.4014367597E+01
                       3.8812158402E+00  0.0000000000E+00  1.9090407335E+01
                       0.0000000000E+00  3.8812158402E+00  2.4286405905E+01
                       3.8812158402E+00  0.0000000000E+00  2.9362445643E+01
                       0.0000000000E+00  3.8812158402E+00  3.4558444213E+01
                       3.8812158402E+00  0.0000000000E+00  3.9634483951E+01
                       0.0000000000E+00  3.8812158402E+00  4.4830482521E+01
                       0.0000000000E+00  3.8812158402E+00  8.8783484426E+00
                       3.8812158402E+00  0.0000000000E+00  1.3954388181E+01
                       0.0000000000E+00  3.8812158402E+00  1.9150386751E+01
                       3.8812158402E+00  0.0000000000E+00  2.4226426489E+01
                       0.0000000000E+00  3.8812158402E+00  2.9422425059E+01
                       3.8812158402E+00  0.0000000000E+00  3.4498464797E+01
                       0.0000000000E+00  3.8812158402E+00  3.9694463367E+01
                       3.8812158402E+00  0.0000000000E+00  4.4770503105E+01
             xred      5.0000000000E-01  0.0000000000E+00  1.6437200000E-01
                       0.0000000000E+00  5.0000000000E-01  2.6122400000E-01
                       5.0000000000E-01  0.0000000000E+00  3.5584000000E-01
                       0.0000000000E+00  5.0000000000E-01  4.5269200000E-01
                       5.0000000000E-01  0.0000000000E+00  5.4730800000E-01
                       0.0000000000E+00  5.0000000000E-01  6.4416000000E-01
                       5.0000000000E-01  0.0000000000E+00  7.3877600000E-01
                       0.0000000000E+00  5.0000000000E-01  8.3562800000E-01
                       0.0000000000E+00  5.0000000000E-01  1.6549000000E-01
                       5.0000000000E-01  0.0000000000E+00  2.6010600000E-01
                       0.0000000000E+00  5.0000000000E-01  3.5695800000E-01
                       5.0000000000E-01  0.0000000000E+00  4.5157400000E-01
                       0.0000000000E+00  5.0000000000E-01  5.4842600000E-01
                       5.0000000000E-01  0.0000000000E+00  6.4304200000E-01
                       0.0000000000E+00  5.0000000000E-01  7.3989400000E-01
                       5.0000000000E-01  0.0000000000E+00  8.3451000000E-01
            znucl       50.00000   34.00000

- Timing analysis has been suppressed with timopt=0

 Suggested references for the acknowledgment of ABINIT usage.

 Calculation completed.
.Delivered   0 WARNINGs and   0 COMMENTs to log file.