.Version 9.2.2 of ABINIT

 ABINIT is a project of the Universite Catholique de Louvain,
 Corning Inc. and other collaborators, see ~abinit/doc/developers/contributors.txt .
 acknowledgments of the ABINIT effort.

.Starting date : Sat 16 Mar 2024.
- ( at 16h00 )

- The starting date is more than 3 years after the initial release
- of this version of ABINIT, namely Nov 2020.
- This version of ABINIT is not supported anymore.
- Action: please, switch to a more recent version of ABINIT.
- input  file    -> Cs2TiI6.in
- output file    -> Cs2TiI6.out
- root for input  files -> Cs2TiI6i
- root for output files -> Cs2TiI6o

 Symmetries : space group P4 m m (# 99); Bravais tP (primitive tetrag.)
     intxc =       0    ionmov =       0      iscf =      17    lmnmax =       6
     lnmax =       6     mgfft =     216  mpssoang =       3    mqgrid =   10623
     natom =      14  nloc_mem =       1    nspden =       1   nspinor =       1
    nsppol =       1      nsym =       8    n1xccc =    2501    ntypat =       3
    occopt =       1   xclevel =       2
-    mband =         113        mffmem =           1         mkmem =           2
       mpw =       15330          nfft =      279936          nkpt =           6
  Rough estimation (10% accuracy) of disk space for files :

------------- Echo of variables that govern the present computation ------------
-
- outvars: echo of selected default values
-   iomode0 =  0 , fftalg0 =112 , wfoptalg0 =  0
-
- outvars: echo of global parameters not present in the input file
-  max_nthreads =    0
-
 -outvars: echo values of preprocessed input variables --------
            acell      7.7624316804E+00  7.7624316804E+00  4.9749252058E+01 Bohr
              amu      1.18710000E+02  7.89600000E+01  6.53900000E+01
           diemac      1.20000000E+01
             ecut      2.25000000E+01 Hartree
-          fftalg         112
             iscf          17
              ixc          11
              kpt      8.33333333E-02  8.33333333E-02  5.00000000E-01
                       2.50000000E-01  8.33333333E-02  5.00000000E-01
                       4.16666667E-01  8.33333333E-02  5.00000000E-01
                       2.50000000E-01  2.50000000E-01  5.00000000E-01
                       4.16666667E-01  2.50000000E-01  5.00000000E-01
                       4.16666667E-01  4.16666667E-01  5.00000000E-01
         kptrlatt        6    0    0      0    6    0      0    0    1
          kptrlen      4.65745901E+01
P           mkmem           2
            natom          14
            nband         113
            ngfft          36      36     216
             nkpt           6
            nstep         150
             nsym           8
           ntypat           3
              occ      2.000000  2.000000  2.000000  2.000000  2.000000  2.000000
                       2.000000  2.000000  2.000000  2.000000  2.000000  2.000000
                       2.000000  2.000000  2.000000  2.000000  2.000000  2.000000
                       2.000000  2.000000  2.000000  2.000000  2.000000  2.000000
                       2.000000  2.000000  2.000000  2.000000  2.000000  2.000000
                       2.000000  2.000000  2.000000  2.000000  2.000000  2.000000
                       2.000000  2.000000  2.000000  2.000000  2.000000  2.000000
                       2.000000  2.000000  2.000000  2.000000  2.000000  2.000000
                       2.000000  2.000000  2.000000  2.000000  2.000000  2.000000
                       2.000000  2.000000  2.000000  2.000000  2.000000  2.000000
                       2.000000  2.000000  2.000000  2.000000  2.000000  2.000000
                       2.000000  2.000000  2.000000  2.000000  2.000000  2.000000
                       2.000000  2.000000  2.000000  2.000000  2.000000  2.000000
                       2.000000  2.000000  2.000000  2.000000  2.000000  2.000000
                       2.000000  2.000000  2.000000  2.000000  2.000000  2.000000
                       2.000000  2.000000  2.000000  2.000000  2.000000  2.000000
                       2.000000  2.000000  2.000000  2.000000  2.000000  2.000000
                       2.000000  2.000000  2.000000  2.000000  2.000000  2.000000
                       2.000000  2.000000  2.000000  0.000000  0.000000
           prtcif           1
            prtwf           0
           shiftk      5.00000000E-01  5.00000000E-01  5.00000000E-01
          spgroup          99
           symrel      1  0  0   0  1  0   0  0  1       1  0  0   0 -1  0   0  0  1
                      -1  0  0   0 -1  0   0  0  1      -1  0  0   0  1  0   0  0  1
                       0  1  0   1  0  0   0  0  1       0  1  0  -1  0  0   0  0  1
                       0 -1  0  -1  0  0   0  0  1       0 -1  0   1  0  0   0  0  1
            tnons      0.0000000  0.0000000  0.0000000     0.0000000 -0.0000000  0.0000000
                      -0.0000000 -0.0000000  0.0000000    -0.0000000  0.0000000  0.0000000
                       0.5000000  0.5000000  0.0000000     0.5000000  0.5000000  0.0000000
                       0.5000000  0.5000000  0.0000000     0.5000000  0.5000000  0.0000000
           toldfe      1.00000000E-06 Hartree
            typat      1  1  1  1  1  2  2  2  2  2  2  2  3  3
           vdw_xc           5
              wtk        0.11111    0.22222    0.22222    0.11111    0.22222    0.11111
           xangst      2.0538509642E+00 -1.0000005802E-10  4.6664681475E+00
                      -1.0000005802E-10  2.0538509642E+00  7.4160979620E+00
                       2.0538509642E+00 -1.0000005802E-10  1.0102196638E+01
                      -1.0000005802E-10  2.0538509642E+00  1.2851826453E+01
                       2.0538509642E+00 -1.0000005802E-10  1.5537925129E+01
                      -1.0000005802E-10  2.0538509642E+00  4.6982333557E+00
                       2.0538509642E+00 -1.0000005802E-10  7.3843323929E+00
                      -1.0000005802E-10  2.0538509642E+00  1.0172602495E+01
                       2.0538509642E+00 -1.0000005802E-10  1.2868943588E+01
                      -1.0000005802E-10  2.0538509642E+00  1.5629057338E+01
                       2.0538509642E+00 -1.0000005802E-10  2.3324757732E+01
                      -1.0000005802E-10  2.0538509642E+00  2.6326170333E+01
                       2.0538509642E+00  2.0538509642E+00  2.4825464032E+01
                      -1.0000005802E-10 -1.0000005802E-10  2.4825464032E+01
            xcart      3.8812158400E+00 -1.8897272293E-10  8.8183468067E+00
                      -1.8897272293E-10  3.8812158400E+00  1.4014394123E+01
                       3.8812158400E+00 -1.8897272293E-10  1.9090384987E+01
                      -1.8897272293E-10  3.8812158400E+00  2.4286432303E+01
                       3.8812158400E+00 -1.8897272293E-10  2.9362423167E+01
                      -1.8897272293E-10  3.8812158400E+00  8.8783743507E+00
                       3.8812158400E+00 -1.8897272293E-10  1.3954365897E+01
                      -1.8897272293E-10  3.8812158400E+00  1.9223432773E+01
                       3.8812158400E+00 -1.8897272293E-10  2.4318779001E+01
                      -1.8897272293E-10  3.8812158400E+00  2.9534638085E+01
                       3.8812158400E+00 -1.8897272293E-10  4.4077404229E+01
                      -1.8897272293E-10  3.8812158400E+00  4.9749252058E+01
                       3.8812158400E+00  3.8812158400E+00  4.6913328143E+01
                      -1.8897272293E-10 -1.8897272293E-10  4.6913328143E+01
             xred      4.9999999998E-01 -2.4344526395E-11  1.7725586701E-01
                      -2.4344526395E-11  4.9999999998E-01  2.8170059937E-01
                       4.9999999998E-01 -2.4344526395E-11  3.8373210043E-01
                      -2.4344526395E-11  4.9999999998E-01  4.8817683278E-01
                       4.9999999998E-01 -2.4344526395E-11  5.9020833384E-01
                      -2.4344526395E-11  4.9999999998E-01  1.7846246895E-01
                       4.9999999998E-01 -2.4344526395E-11  2.8049398372E-01
                      -2.4344526395E-11  4.9999999998E-01  3.8640646800E-01
                       4.9999999998E-01 -2.4344526395E-11  4.8882702744E-01
                      -2.4344526395E-11  4.9999999998E-01  5.9366999227E-01
                       4.9999999998E-01 -2.4344526395E-11  8.8599129446E-01
                      -2.4344526395E-11  4.9999999998E-01  1.0000000000E+00
                       4.9999999998E-01  4.9999999998E-01  9.4299564722E-01
                      -2.4344526395E-11 -2.4344526395E-11  9.4299564722E-01
            znucl       50.00000   34.00000   30.00000

 chkinp: Checking input parameters for consistency.

== DATASET  1 ==================================================================
-   mpi_nproc: 4, omp_nthreads: -1 (-1 if OMP is not activated)

--- !DatasetInfo
iteration_state: {dtset: 1, }
dimensions: {natom: 14, nkpt: 6, mband: 113, nsppol: 1, nspinor: 1, nspden: 1, mpw: 15330, }
cutoff_energies: {ecut:  22.5, pawecutdg:  -1.0, }
electrons: {nelect:   2.22000000E+02, charge:   0.00000000E+00, occopt:   1.00000000E+00, tsmear:   1.00000000E-02, }
meta: {optdriver: 0, ionmov: 0, optcell: 0, iscf: 17, paral_kgb: 0, }
...

 Real(R)+Recip(G) space primitive vectors, cartesian coordinates (Bohr,Bohr^-1):
 R(1)=  7.7624317  0.0000000  0.0000000  G(1)=  0.1288256  0.0000000  0.0000000
 R(2)=  0.0000000  7.7624317  0.0000000  G(2)=  0.0000000  0.1288256  0.0000000
 R(3)=  0.0000000  0.0000000 49.7492521  G(3)=  0.0000000  0.0000000  0.0201008
 Unit cell volume ucvol=  2.9976584E+03 bohr^3
 Angles (23,13,12)=  9.00000000E+01  9.00000000E+01  9.00000000E+01 degrees

 getcut: wavevector=  0.0000  0.0000  0.0000  ngfft=  36  36 216
         ecut(hartree)=     22.500   => boxcut(ratio)=   2.03334

--- Pseudopotential description ------------------------------------------------
- pspini: atom type   1  psp file is ../../../Psps_for_tests/ATOMICDATA_NC/Sn.psp8
- pspatm: opening atomic psp file    ../../../Psps_for_tests/ATOMICDATA_NC/Sn.psp8
- Sn    ONCVPSP  r_core=  2.27  2.62  1.86
- 50.00000  14.00000    150810                znucl, zion, pspdat
    8   11    2    4       600   0.00000      pspcod,pspxc,lmax,lloc,mmax,r2well
    5.99000000000000    6.50000000000000    0.00000000000000   rchrg,fchrg,qchrg
     nproj     2     2     2
     extension_switch     1
  pspatm : epsatm=   32.65190642
         --- l  ekb(1:nproj) -->
             0    5.462393    0.682281
             1    4.443814    0.825686
             2   -5.382195   -1.704077
 pspatm: atomic psp has been read  and splines computed

- pspini: atom type   2  psp file is ../../../Psps_for_tests/ATOMICDATA_NC/Se.psp8
- pspatm: opening atomic psp file    ../../../Psps_for_tests/ATOMICDATA_NC/Se.psp8
- Se    ONCVPSP  r_core=  1.82  1.50  1.91
- 34.00000  16.00000    150729                znucl, zion, pspdat
    8   11    2    4       600   0.00000      pspcod,pspxc,lmax,lloc,mmax,r2well
    5.99000000000000    5.00000000000000    0.00000000000000   rchrg,fchrg,qchrg
     nproj     2     2     2
     extension_switch     1
  pspatm : epsatm=   29.53325930
         --- l  ekb(1:nproj) -->
             0    8.612261    0.939919
[...]
      -0.000000000024      0.499999999976      0.281700599370
       0.499999999976     -0.000000000024      0.383732100425
      -0.000000000024      0.499999999976      0.488176832783
       0.499999999976     -0.000000000024      0.590208333839
      -0.000000000024      0.499999999976      0.178462468950
       0.499999999976     -0.000000000024      0.280493983718
      -0.000000000024      0.499999999976      0.386406468003
       0.499999999976     -0.000000000024      0.488827027443
      -0.000000000024      0.499999999976      0.593669992273
       0.499999999976     -0.000000000024      0.885991294460
      -0.000000000024      0.499999999976      1.000000000000
       0.499999999976      0.499999999976      0.942995647217
      -0.000000000024     -0.000000000024      0.942995647217
 rms dE/dt=  3.5470E-01; max dE/dt=  7.5688E-01; dE/dt below (all hartree)
    1       0.000000000000      0.000000000000      0.745339829026
    2       0.000000000000      0.000000000000      0.499703769494
    3       0.000000000000      0.000000000000     -0.261980310742
    4       0.000000000000      0.000000000000     -0.992344660178
    5       0.000000000000      0.000000000000     -0.976844891955
    6       0.000000000000      0.000000000000      0.756879750957
    7       0.000000000000      0.000000000000      0.355684614834
    8       0.000000000000      0.000000000000      0.393416109624
    9       0.000000000000      0.000000000000     -0.049371802771
   10       0.000000000000      0.000000000000     -0.363269140893
   11       0.000000000000      0.000000000000     -0.574012711727
   12       0.000000000000      0.000000000000      0.469497737410
   13       0.000000000000      0.000000000000     -0.682960696064
   14       0.000000000000      0.000000000000     -0.682960696064

 cartesian coordinates (angstrom) at end:
    1      2.05385096415820    -0.00000000010000     4.66646814753658
    2     -0.00000000010000     2.05385096415820     7.41609796202208
    3      2.05385096415820    -0.00000000010000    10.10219663818584
    4     -0.00000000010000     2.05385096415820    12.85182645267137
    5      2.05385096415820    -0.00000000010000    15.53792512883512
    6     -0.00000000010000     2.05385096415820     4.69823335569743
    7      2.05385096415820    -0.00000000010000     7.38433239286121
    8     -0.00000000010000     2.05385096415820    10.17260249455910
    9      2.05385096415820    -0.00000000010000    12.86894358804126
   10     -0.00000000010000     2.05385096415820    15.62905733839281
   11      2.05385096415820    -0.00000000010000    23.32475773185172
   12     -0.00000000010000     2.05385096415820    26.32617033339269
   13      2.05385096415820     2.05385096415820    24.82546403227088
   14     -0.00000000010000    -0.00000000010000    24.82546403227088

 cartesian forces (hartree/bohr) at end:
    1     -0.00000000000000    -0.00000000000000    -0.01693920757944
    2     -0.00000000000000    -0.00000000000000    -0.01200172511746
    3     -0.00000000000000    -0.00000000000000     0.00330873782880
    4     -0.00000000000000    -0.00000000000000     0.01798964898275
    5     -0.00000000000000    -0.00000000000000     0.01767809116868
    6     -0.00000000000000    -0.00000000000000    -0.01717116929654
    7     -0.00000000000000    -0.00000000000000    -0.00910682421539
    8     -0.00000000000000    -0.00000000000000    -0.00986525762351
    9     -0.00000000000000    -0.00000000000000    -0.00096486426926
   10     -0.00000000000000    -0.00000000000000     0.00534472482280
   11     -0.00000000000000    -0.00000000000000     0.00958084018369
   12     -0.00000000000000    -0.00000000000000    -0.01139455956554
   13     -0.00000000000000    -0.00000000000000     0.01177078234021
   14     -0.00000000000000    -0.00000000000000     0.01177078234021
 frms,max,avg= 7.0396886E-03 1.7989649E-02   0.000E+00  0.000E+00  1.957E-03 h/b

 cartesian forces (eV/Angstrom) at end:
    1     -0.00000000000000    -0.00000000000000    -0.87104900257618
    2     -0.00000000000000    -0.00000000000000    -0.61715346740585
    3     -0.00000000000000    -0.00000000000000     0.17014212571922
    4     -0.00000000000000    -0.00000000000000     0.92506486679715
    5     -0.00000000000000    -0.00000000000000     0.90904392119356
    6     -0.00000000000000    -0.00000000000000    -0.88297695265084
    7     -0.00000000000000    -0.00000000000000    -0.46829169028441
    8     -0.00000000000000    -0.00000000000000    -0.50729190092368
    9     -0.00000000000000    -0.00000000000000    -0.04961531142559
   10     -0.00000000000000    -0.00000000000000     0.27483677758285
   11     -0.00000000000000    -0.00000000000000     0.49266656936013
   12     -0.00000000000000    -0.00000000000000    -0.58593176202696
   13     -0.00000000000000    -0.00000000000000     0.60527791332031
   14     -0.00000000000000    -0.00000000000000     0.60527791332031
 frms,max,avg= 3.6199531E-01 9.2506487E-01   0.000E+00  0.000E+00  1.006E-01 e/A
 length scales=  7.762431680422  7.762431680422 49.749252057811 bohr
              =  4.107701928516  4.107701928516 26.326170333393 angstroms
 prteigrs : about to open file Cs2TiI6o_EIG
 Fermi (or HOMO) energy (hartree) =   0.12399   Average Vxc (hartree)=  -0.30702
 Eigenvalues (hartree) for nkpt=   6  k points:
 kpt#   1, nband=113, wtk=  0.11111, kpt=  0.0833  0.0833  0.5000 (reduced coord)
  -4.74548   -4.74548   -2.98302   -2.98257   -2.98037   -2.98037   -2.98021   -2.98010
  -1.69554   -1.69468   -1.69412   -1.69410   -1.69290   -1.69289   -1.69257   -1.69228
  -1.69178   -1.69097   -1.69074   -1.69019   -1.68974   -1.68900   -1.68855   -1.68822
  -1.68819   -1.68694   -1.68672   -1.68636   -1.68606   -1.68586   -1.68427   -1.68233
  -1.68168   -1.66807   -1.66801   -1.66489   -1.66443   -1.66368   -1.65904   -1.65902
  -1.65618   -1.65539   -1.65481   -0.69029   -0.68909   -0.68895   -0.68833   -0.68808
  -0.68194   -0.68049   -0.68027   -0.68022   -0.67994   -0.67984   -0.67983   -0.67971
  -0.67837   -0.67816   -0.67648   -0.67608   -0.67596   -0.67464   -0.67438   -0.67302
  -0.67116   -0.67095   -0.67094   -0.67079   -0.43749   -0.42109   -0.41533   -0.39832
  -0.39012   -0.37451   -0.36515   -0.20826   -0.20587   -0.20579   -0.20541   -0.20391
  -0.19372   -0.19203   -0.19085   -0.18757   -0.18576   -0.15877   -0.15265   -0.12609
  -0.11441   -0.08978   -0.08058   -0.07567   -0.05404   -0.03461   -0.03172   -0.02640
  -0.02138   -0.01072   -0.00744   -0.00703    0.01318    0.01548    0.02199    0.02379
   0.03811    0.04602    0.04728    0.04735    0.05446    0.07056    0.09489    0.14369
   0.15792
 prteigrs : prtvol=0 or 1, do not print more k-points.

--- !EnergyTerms
iteration_state     : {dtset: 1, }
comment             : Components of total free energy in Hartree
kinetic             :  9.38272150573569E+02
hartree             :  1.26085416806001E+03
xc                  : -3.21407075154799E+02
Ewald energy        : -1.13452092442996E+02
psp_core            :  3.13514278871844E+01
local_psp           : -2.89607025364587E+03
non_local_psp       : -5.51290490121763E+02
VdWaals_dft_d       : -1.55060084755352E-01
total_energy        : -1.65189722492943E+03
...

--- !EnergyTermsDC
iteration_state     : {dtset: 1, }
comment             : '"Double-counting" decomposition of free energy'
band_energy         : -2.17237690384925E+02
Ewald energy        : -1.13452092442996E+02
psp_core            :  3.13514278871844E+01
xc_dc               : -1.35240357298851E+03
VdWaals_dft_d       : -1.55060084755352E-01
total_energy_dc     : -1.65189698801400E+03
...

 Cartesian components of stress tensor (hartree/bohr^3)
  sigma(1 1)=  1.53502326E-02  sigma(3 2)=  0.00000000E+00
  sigma(2 2)=  1.53502326E-02  sigma(3 1)=  0.00000000E+00
  sigma(3 3)=  1.51931911E-02  sigma(2 1)=  0.00000000E+00

-Cartesian components of stress tensor (GPa)         [Pressure= -4.5008E+02 GPa]
- sigma(1 1)=  4.51619358E+02  sigma(3 2)=  0.00000000E+00
- sigma(2 2)=  4.51619358E+02  sigma(3 1)=  0.00000000E+00
- sigma(3 3)=  4.46999040E+02  sigma(2 1)=  0.00000000E+00

== END DATASET(S) ==============================================================

 -outvars: echo values of variables after computation  --------
            acell      7.7624316804E+00  7.7624316804E+00  4.9749252058E+01 Bohr
              amu      1.18710000E+02  7.89600000E+01  6.53900000E+01
           diemac      1.20000000E+01
             ecut      2.25000000E+01 Hartree
           etotal     -1.6518969880E+03
            fcart     -0.0000000000E+00 -0.0000000000E+00 -1.6939207579E-02
                      -0.0000000000E+00 -0.0000000000E+00 -1.2001725117E-02
                      -0.0000000000E+00 -0.0000000000E+00  3.3087378288E-03
                      -0.0000000000E+00 -0.0000000000E+00  1.7989648983E-02
                      -0.0000000000E+00 -0.0000000000E+00  1.7678091169E-02
                      -0.0000000000E+00 -0.0000000000E+00 -1.7171169297E-02
                      -0.0000000000E+00 -0.0000000000E+00 -9.1068242154E-03
                      -0.0000000000E+00 -0.0000000000E+00 -9.8652576235E-03
                      -0.0000000000E+00 -0.0000000000E+00 -9.6486426926E-04
                      -0.0000000000E+00 -0.0000000000E+00  5.3447248228E-03
                      -0.0000000000E+00 -0.0000000000E+00  9.5808401837E-03
                      -0.0000000000E+00 -0.0000000000E+00 -1.1394559566E-02
                      -0.0000000000E+00 -0.0000000000E+00  1.1770782340E-02
                      -0.0000000000E+00 -0.0000000000E+00  1.1770782340E-02
-          fftalg         112
             iscf          17
              ixc          11
              kpt      8.33333333E-02  8.33333333E-02  5.00000000E-01
                       2.50000000E-01  8.33333333E-02  5.00000000E-01
                       4.16666667E-01  8.33333333E-02  5.00000000E-01
                       2.50000000E-01  2.50000000E-01  5.00000000E-01
                       4.16666667E-01  2.50000000E-01  5.00000000E-01
                       4.16666667E-01  4.16666667E-01  5.00000000E-01
         kptrlatt        6    0    0      0    6    0      0    0    1
          kptrlen      4.65745901E+01
P           mkmem           2
            natom          14
            nband         113
            ngfft          36      36     216
             nkpt           6
            nstep         150
             nsym           8
           ntypat           3
              occ      2.000000  2.000000  2.000000  2.000000  2.000000  2.000000
                       2.000000  2.000000  2.000000  2.000000  2.000000  2.000000
                       2.000000  2.000000  2.000000  2.000000  2.000000  2.000000
                       2.000000  2.000000  2.000000  2.000000  2.000000  2.000000
                       2.000000  2.000000  2.000000  2.000000  2.000000  2.000000
                       2.000000  2.000000  2.000000  2.000000  2.000000  2.000000
                       2.000000  2.000000  2.000000  2.000000  2.000000  2.000000
                       2.000000  2.000000  2.000000  2.000000  2.000000  2.000000
                       2.000000  2.000000  2.000000  2.000000  2.000000  2.000000
                       2.000000  2.000000  2.000000  2.000000  2.000000  2.000000
                       2.000000  2.000000  2.000000  2.000000  2.000000  2.000000
                       2.000000  2.000000  2.000000  2.000000  2.000000  2.000000
                       2.000000  2.000000  2.000000  2.000000  2.000000  2.000000
                       2.000000  2.000000  2.000000  2.000000  2.000000  2.000000
                       2.000000  2.000000  2.000000  2.000000  2.000000  2.000000
                       2.000000  2.000000  2.000000  2.000000  2.000000  2.000000
                       2.000000  2.000000  2.000000  2.000000  2.000000  2.000000
                       2.000000  2.000000  2.000000  2.000000  2.000000  2.000000
                       2.000000  2.000000  2.000000  0.000000  0.000000
           prtcif           1
            prtwf           0
           shiftk      5.00000000E-01  5.00000000E-01  5.00000000E-01
          spgroup          99
           strten      1.5350232558E-02  1.5350232558E-02  1.5193191102E-02
                       0.0000000000E+00  0.0000000000E+00  0.0000000000E+00
           symrel      1  0  0   0  1  0   0  0  1       1  0  0   0 -1  0   0  0  1
                      -1  0  0   0 -1  0   0  0  1      -1  0  0   0  1  0   0  0  1
                       0  1  0   1  0  0   0  0  1       0  1  0  -1  0  0   0  0  1
                       0 -1  0  -1  0  0   0  0  1       0 -1  0   1  0  0   0  0  1
            tnons      0.0000000  0.0000000  0.0000000     0.0000000 -0.0000000  0.0000000
                      -0.0000000 -0.0000000  0.0000000    -0.0000000  0.0000000  0.0000000
                       0.5000000  0.5000000  0.0000000     0.5000000  0.5000000  0.0000000
                       0.5000000  0.5000000  0.0000000     0.5000000  0.5000000  0.0000000
           toldfe      1.00000000E-06 Hartree
            typat      1  1  1  1  1  2  2  2  2  2  2  2  3  3
           vdw_xc           5
              wtk        0.11111    0.22222    0.22222    0.11111    0.22222    0.11111
           xangst      2.0538509642E+00 -1.0000005802E-10  4.6664681475E+00
                      -1.0000005802E-10  2.0538509642E+00  7.4160979620E+00
                       2.0538509642E+00 -1.0000005802E-10  1.0102196638E+01
                      -1.0000005802E-10  2.0538509642E+00  1.2851826453E+01
                       2.0538509642E+00 -1.0000005802E-10  1.5537925129E+01
                      -1.0000005802E-10  2.0538509642E+00  4.6982333557E+00
                       2.0538509642E+00 -1.0000005802E-10  7.3843323929E+00
                      -1.0000005802E-10  2.0538509642E+00  1.0172602495E+01
                       2.0538509642E+00 -1.0000005802E-10  1.2868943588E+01
                      -1.0000005802E-10  2.0538509642E+00  1.5629057338E+01
                       2.0538509642E+00 -1.0000005802E-10  2.3324757732E+01
                      -1.0000005802E-10  2.0538509642E+00  2.6326170333E+01
                       2.0538509642E+00  2.0538509642E+00  2.4825464032E+01
                      -1.0000005802E-10 -1.0000005802E-10  2.4825464032E+01
            xcart      3.8812158400E+00 -1.8897272293E-10  8.8183468067E+00
                      -1.8897272293E-10  3.8812158400E+00  1.4014394123E+01
                       3.8812158400E+00 -1.8897272293E-10  1.9090384987E+01
                      -1.8897272293E-10  3.8812158400E+00  2.4286432303E+01
                       3.8812158400E+00 -1.8897272293E-10  2.9362423167E+01
                      -1.8897272293E-10  3.8812158400E+00  8.8783743507E+00
                       3.8812158400E+00 -1.8897272293E-10  1.3954365897E+01
                      -1.8897272293E-10  3.8812158400E+00  1.9223432773E+01
                       3.8812158400E+00 -1.8897272293E-10  2.4318779001E+01
                      -1.8897272293E-10  3.8812158400E+00  2.9534638085E+01
                       3.8812158400E+00 -1.8897272293E-10  4.4077404229E+01
                      -1.8897272293E-10  3.8812158400E+00  4.9749252058E+01
                       3.8812158400E+00  3.8812158400E+00  4.6913328143E+01
                      -1.8897272293E-10 -1.8897272293E-10  4.6913328143E+01
             xred      4.9999999998E-01 -2.4344526395E-11  1.7725586701E-01
                      -2.4344526395E-11  4.9999999998E-01  2.8170059937E-01
                       4.9999999998E-01 -2.4344526395E-11  3.8373210043E-01
                      -2.4344526395E-11  4.9999999998E-01  4.8817683278E-01
                       4.9999999998E-01 -2.4344526395E-11  5.9020833384E-01
                      -2.4344526395E-11  4.9999999998E-01  1.7846246895E-01
                       4.9999999998E-01 -2.4344526395E-11  2.8049398372E-01
                      -2.4344526395E-11  4.9999999998E-01  3.8640646800E-01
                       4.9999999998E-01 -2.4344526395E-11  4.8882702744E-01
                      -2.4344526395E-11  4.9999999998E-01  5.9366999227E-01
                       4.9999999998E-01 -2.4344526395E-11  8.8599129446E-01
                      -2.4344526395E-11  4.9999999998E-01  1.0000000000E+00
                       4.9999999998E-01  4.9999999998E-01  9.4299564722E-01
                      -2.4344526395E-11 -2.4344526395E-11  9.4299564722E-01
            znucl       50.00000   34.00000   30.00000

- Timing analysis has been suppressed with timopt=0

 Suggested references for the acknowledgment of ABINIT usage.

 Calculation completed.
.Delivered   0 WARNINGs and   0 COMMENTs to log file.