.Version 9.2.2 of ABINIT

 ABINIT is a project of the Universite Catholique de Louvain,
 Corning Inc. and other collaborators, see ~abinit/doc/developers/contributors.txt .
 acknowledgments of the ABINIT effort.

.Starting date : Sat 24 Feb 2024.
- ( at 15h20 )

- The starting date is more than 3 years after the initial release
- of this version of ABINIT, namely Nov 2020.
- This version of ABINIT is not supported anymore.
- Action: please, switch to a more recent version of ABINIT.

 === Build Information ===
  Version       : 9.2.2
  Build target  : x86_64_linux_gnu9.3
  Build date    : 20210501

 === Optimizations ===
  Debug level        : basic
  Optimization level : standard
  Architecture       : unknown_unknown

 === Multicore ===
  Parallel build : yes
  Parallel I/O   : yes
  openMP support :
  GPU support    :

 === Connectors / Fallbacks ===
  LINALG flavor  : netlib
  FFT flavor     : goedecker
  HDF5           : yes
  NetCDF         : yes
  NetCDF Fortran : yes
  Wannier90      : no

 === Experimental features ===
  Exports             :
  GW double-precision :

 Default optimizations:
   -O2 -mtune=native -march=native

 Optimizations for 43_ptgroups:
   -O0

 CPP options activated during the build:

                    CC_GNU                    FC_GNU HAVE_FC_ALLOCATABLE_DT...

             HAVE_FC_ASYNC         HAVE_FC_BACKTRACE  HAVE_FC_COMMAND_ARGUMENT

      HAVE_FC_COMMAND_LINE        HAVE_FC_CONTIGUOUS           HAVE_FC_CPUTIME

              HAVE_FC_EXIT             HAVE_FC_FLUSH             HAVE_FC_GAMMA

            HAVE_FC_GETENV   HAVE_FC_IEEE_ARITHMETIC   HAVE_FC_IEEE_EXCEPTIONS

          HAVE_FC_INT_QUAD             HAVE_FC_IOMSG     HAVE_FC_ISO_C_BINDING

  HAVE_FC_ISO_FORTRAN_2008        HAVE_FC_LONG_LINES        HAVE_FC_MOVE_ALLOC

  HAVE_FC_ON_THE_FLY_SHAPE           HAVE_FC_PRIVATE         HAVE_FC_PROTECTED

           HAVE_FC_SHIFTLR         HAVE_FC_STREAM_IO            HAVE_FC_SYSTEM

          HAVE_FORTRAN2003                 HAVE_HDF5        HAVE_LIBPAW_ABINIT

                 HAVE_MPI2       HAVE_MPI_IALLGATHER       HAVE_MPI_IALLREDUCE

        HAVE_MPI_IALLTOALL       HAVE_MPI_IALLTOALLV           HAVE_MPI_IBCAST

         HAVE_MPI_IGATHERV        HAVE_MPI_INTEGER16               HAVE_MPI_IO

 HAVE_MPI_TYPE_CREATE_S...               HAVE_NETCDF       HAVE_NETCDF_FORTRAN

             HAVE_OS_LINUX         HAVE_TIMER_ABINIT

- input  file    -> Cs2TiI6.in
- output file    -> Cs2TiI6.out
- root for input  files -> Cs2TiI6i
- root for output files -> Cs2TiI6o

-instrng: 39 lines of input have been read from file Cs2TiI6.in

 Please give name of formatted atomic psp file (and finish with a newline character)
 For atom type 1, psp file is ../../../Psps_for_tests/ATOMICDATA_NC/Sn.psp8

 Please give name of formatted atomic psp file (and finish with a newline character)
 For atom type 2, psp file is ../../../Psps_for_tests/ATOMICDATA_NC/Se.psp8
  read the values zionpsp= 14.0 , pspcod=   8 , lmax=   2
  read the values zionpsp= 16.0 , pspcod=   8 , lmax=   2

 inpspheads: deduce mpsang = 3, n1xccc = 2501.

 invars1m : enter jdtset= 0

 symlatt: the Bravais lattice is tP (primitive tetragonal)
  xred   is defined in input file
 ingeo: takes atomic coordinates from input array xred

--- !WARNING
src_file: m_ingeo.F90
src_line: 887
message: |
    The tolerance on symmetries =   1.000E-05 is bigger than 1.0e-8.
    In order to avoid spurious effects, the atomic coordinates have been
    symmetrized before storing them in the dataset internal variable.
    So, do not be surprised by the fact that your input variables (xcart, xred, ...)
    do not correspond to the ones echoed by ABINIT, the latter being used to do the calculations.
    In order to avoid this symmetrization (e.g. for specific debugging/development), decrease tolsym to 1.0e-8 or lower.
...

 symlatt: the Bravais lattice is tP (primitive tetragonal)

 symlatt: the Bravais lattice is tP (primitive tetragonal)
 symspgr: spgroup=  99  P4 m m   (=C4v^1)
 symspgr: optical characteristics = uniaxial
 Optical axis (in reduced coordinates, real space ) :   0   0   1
 invars2: take the default value of fband=  1.25000000E-01

--- !WARNING
src_file: m_mpinfo.F90
src_line: 2281
message: |
    nkpt*nsppol (10) is not a multiple of nproc_kpt (6)
    The k-point parallelisation is inefficient. (Ignore this warning if this is not a GS run)
...

 For input ecut=  2.250000E+01 best grid ngfft=      36      36     120
       max ecut=  2.271046E+01

 ==== FFT mesh ====
  FFT mesh divisions ........................    36   36  120
  Augmented FFT divisions ...................    37   37  120
  FFT algorithm .............................   112
  FFT cache size ............................    16
 getmpw: optimal value of mpw= 8628

 Symmetries : space group P4 m m (# 99); Bravais tP (primitive tetrag.)

 getdim_nloc : deduce lmnmax  =  18, lnmax  =   6,
                      lmnmaxso=  18, lnmaxso=   6.
     intxc =       0    ionmov =       0      iscf =      17    lmnmax =       6
     lnmax =       6     mgfft =     120  mpssoang =       3    mqgrid =    5973
     natom =       6  nloc_mem =       1    nspden =       1   nspinor =       1
    nsppol =       1      nsym =       8    n1xccc =    2501    ntypat =       2
    occopt =       1   xclevel =       2
-    mband =          46        mffmem =           1         mkmem =           2
       mpw =        8628          nfft =      155520          nkpt =          10
  Rough estimation (10% accuracy) of disk space for files :

 The job will continue.
------------- Echo of variables that govern the present computation ------------
-
- outvars: echo of selected default values
-   iomode0 =  0 , fftalg0 =112 , wfoptalg0 =  0
-
- outvars: echo of global parameters not present in the input file
-  max_nthreads =    0
-
 -outvars: echo values of preprocessed input variables --------

 These variables are accessible in NetCDF format (Cs2TiI6o_OUT.nc)

            acell      7.7624316804E+00  7.7624316804E+00  7.7624316804E+00 Bohr
              amu      1.18710000E+02  7.89600000E+01
           diemac      1.20000000E+01
             ecut      2.25000000E+01 Hartree
-          fftalg         112
             iscf          17
              ixc          11
              kpt      6.25000000E-02  6.25000000E-02  5.00000000E-01
                       1.87500000E-01  6.25000000E-02  5.00000000E-01
                       3.12500000E-01  6.25000000E-02  5.00000000E-01
                       4.37500000E-01  6.25000000E-02  5.00000000E-01
                       1.87500000E-01  1.87500000E-01  5.00000000E-01
                       3.12500000E-01  1.87500000E-01  5.00000000E-01
                       4.37500000E-01  1.87500000E-01  5.00000000E-01
                       3.12500000E-01  3.12500000E-01  5.00000000E-01
                       4.37500000E-01  3.12500000E-01  5.00000000E-01
                       4.37500000E-01  4.37500000E-01  5.00000000E-01
         kptrlatt        8    0    0      0    8    0      0    0    1
          kptrlen      6.20994534E+01
P           mkmem           2
            natom           6
            nband          46
            ngfft          36      36     120
             nkpt          10
            nstep         150
             nsym           8
           ntypat           2
              occ      2.000000  2.000000  2.000000  2.000000  2.000000  2.000000
                       2.000000  2.000000  2.000000  2.000000  2.000000  2.000000
                       2.000000  2.000000  2.000000  2.000000  2.000000  2.000000
                       2.000000  2.000000  2.000000  2.000000  2.000000  2.000000
                       2.000000  2.000000  2.000000  2.000000  2.000000  2.000000
                       2.000000  2.000000  2.000000  2.000000  2.000000  2.000000
                       2.000000  2.000000  2.000000  2.000000  2.000000  2.000000
                       2.000000  2.000000  2.000000  0.000000
           prtcif           1
            rprim      1.0000000000E+00  0.0000000000E+00  0.0000000000E+00
                       0.0000000000E+00  1.0000000000E+00  0.0000000000E+00
                       0.0000000000E+00  0.0000000000E+00  3.6030921912E+00
           shiftk      5.00000000E-01  5.00000000E-01  5.00000000E-01
          spgroup          99
           symrel      1  0  0   0  1  0   0  0  1       1  0  0   0 -1  0   0  0  1
                      -1  0  0   0 -1  0   0  0  1      -1  0  0   0  1  0   0  0  1
                       0  1  0   1  0  0   0  0  1       0  1  0  -1  0  0   0  0  1
                       0 -1  0  -1  0  0   0  0  1       0 -1  0   1  0  0   0  0  1
            tnons      0.0000000  0.0000000  0.0000000     0.0000000  0.0000000  0.0000000
                      -0.0000000  0.0000000  0.0000000    -0.0000000  0.0000000  0.0000000
                       0.5000000  0.5000000  0.0000000     0.5000000  0.5000000  0.0000000
                       0.5000000  0.5000000  0.0000000     0.5000000  0.5000000  0.0000000
           toldfe      1.00000000E-06 Hartree
            typat      1  1  1  2  2  2
           vdw_xc           5
              wtk        0.06250    0.12500    0.12500    0.12500    0.06250    0.12500
                         0.12500    0.06250    0.12500    0.06250
           xangst      2.0538509643E+00  0.0000000000E+00  4.6664715795E+00
                       0.0000000000E+00  2.0538509643E+00  7.4160952313E+00
                       2.0538509643E+00  0.0000000000E+00  1.0102195443E+01
                       0.0000000000E+00  2.0538509643E+00  4.6982332996E+00
                       2.0538509643E+00  0.0000000000E+00  7.3843335112E+00
                       0.0000000000E+00  2.0538509643E+00  1.0133957163E+01
            xcart      3.8812158402E+00  0.0000000000E+00  8.8183532921E+00
                       0.0000000000E+00  3.8812158402E+00  1.4014388962E+01
                       3.8812158402E+00  0.0000000000E+00  1.9090382728E+01
                       0.0000000000E+00  3.8812158402E+00  8.8783742446E+00
                       3.8812158402E+00  0.0000000000E+00  1.3954368010E+01
                       0.0000000000E+00  3.8812158402E+00  1.9150403680E+01
             xred      5.0000000000E-01  0.0000000000E+00  3.1529300000E-01
                       0.0000000000E+00  5.0000000000E-01  5.0107300000E-01
                       5.0000000000E-01  0.0000000000E+00  6.8256100000E-01
                       0.0000000000E+00  5.0000000000E-01  3.1743900000E-01
                       5.0000000000E-01  0.0000000000E+00  4.9892700000E-01
                       0.0000000000E+00  5.0000000000E-01  6.8470700000E-01
            znucl       50.00000   34.00000

 chkinp: Checking input parameters for consistency.
 DATA TYPE INFORMATION:
 REAL:      Data type name: REAL(DP)
            Kind value:      8
            Precision:      15
            Smallest nonnegligible quantity relative to 1: 0.22204460E-015
            Smallest positive number:                      0.22250739E-307
            Largest representable number:                  0.17976931E+309
 INTEGER:   Data type name: INTEGER(default)
[...]
   3.21E-13  2.82E-13  4.98E-13  4.90E-13  5.18E-13  5.20E-13  4.64E-13  6.74E-13
   5.59E-13  3.33E-14  2.30E-13  6.31E-13  6.01E-13  4.02E-13  9.52E-13  4.61E-12
   4.70E-12  1.18E-12  2.94E-12  2.13E-12  4.22E-12  5.64E-12  1.30E-12  3.41E-12
   2.52E-12  5.07E-12  3.18E-12  9.21E-12  7.44E-10  8.51E-07
   0.1875  0.1875  0.5000    1  3.63815E-05 kpt; spin; max resid(k); each band:
   3.04E-13  1.10E-12  5.78E-13  1.85E-14  6.42E-13  5.04E-12  9.05E-12  1.39E-11
   6.25E-12  1.03E-11  1.45E-11  1.09E-11  1.09E-11  1.38E-11  1.32E-11  2.02E-13
   1.92E-13  4.27E-13  3.42E-13  4.45E-13  4.95E-13  6.21E-13  4.19E-13  3.77E-13
   5.09E-13  2.63E-13  1.89E-14  6.07E-13  4.04E-13  7.62E-13  2.27E-12  6.45E-12
   5.91E-12  2.48E-12  2.34E-12  2.13E-12  9.46E-13  4.41E-12  1.43E-12  1.13E-12
   6.03E-12  3.85E-12  3.57E-12  5.32E-12  3.21E-12  3.64E-05
   0.3125  0.1875  0.5000    1  4.21795E-06 kpt; spin; max resid(k); each band:
   6.82E-13  9.42E-13  8.79E-13  2.93E-13  1.57E-13  8.52E-12  1.14E-11  1.31E-11
   1.39E-11  1.11E-11  5.83E-12  4.52E-12  1.19E-11  1.33E-11  1.41E-11  2.85E-13
   2.71E-13  4.91E-13  4.94E-13  1.35E-13  1.10E-13  5.22E-13  5.39E-13  3.35E-14
   2.33E-14  5.75E-14  4.18E-13  4.47E-13  5.31E-13  5.52E-13  1.83E-12  6.39E-12
   6.11E-12  1.58E-12  2.71E-12  2.39E-12  1.09E-12  4.10E-12  2.11E-12  1.19E-12
   5.33E-12  4.84E-12  3.74E-12  2.57E-12  5.21E-12  4.22E-06
   0.4375  0.1875  0.5000    1  6.39336E-10 kpt; spin; max resid(k); each band:
   5.00E-13  6.54E-13  1.24E-12  5.32E-13  4.08E-13  7.97E-12  1.23E-11  8.74E-12
   1.39E-11  1.28E-11  1.21E-11  8.57E-12  1.30E-11  1.40E-11  1.36E-11  2.52E-13
   1.82E-13  3.70E-13  5.54E-13  3.47E-13  5.27E-13  1.78E-13  4.84E-13  1.13E-13
   7.78E-14  4.69E-14  3.19E-13  5.56E-13  4.22E-13  4.63E-13  8.43E-13  5.00E-12
   5.18E-12  1.18E-12  2.97E-12  2.42E-12  1.22E-12  3.15E-12  1.90E-12  4.02E-12
   4.55E-12  3.49E-12  1.52E-12  2.15E-12  4.97E-12  6.39E-10
   0.3125  0.3125  0.5000    1  4.25892E-11 kpt; spin; max resid(k); each band:
   9.76E-14  6.36E-13  5.37E-13  5.02E-13  4.68E-14  3.86E-12  9.96E-12  1.33E-11
   1.13E-11  1.43E-11  1.14E-11  1.02E-11  1.35E-11  1.05E-11  1.47E-11  3.98E-13
   3.34E-13  4.54E-13  1.42E-13  1.10E-13  1.54E-13  6.96E-14  4.31E-13  8.22E-14
   7.18E-14  5.35E-14  8.41E-13  1.34E-14  4.29E-13  4.06E-13  1.35E-12  6.23E-12
   6.20E-12  1.38E-12  3.09E-12  2.68E-12  8.81E-13  1.21E-12  4.27E-12  9.14E-13
   2.76E-12  5.37E-12  1.95E-12  2.78E-12  4.55E-12  4.26E-11
   0.4375  0.3125  0.5000    1  1.42771E-11 kpt; spin; max resid(k); each band:
   9.29E-13  3.03E-13  1.20E-12  1.84E-13  5.94E-14  1.13E-11  1.22E-11  8.73E-12
   1.31E-11  1.29E-11  1.33E-11  1.40E-11  1.25E-11  1.43E-11  1.31E-11  2.87E-13
   2.03E-13  5.69E-13  6.45E-13  2.83E-13  2.41E-13  5.56E-13  4.85E-13  1.21E-13
   9.46E-14  7.00E-14  1.64E-14  8.48E-13  4.35E-13  4.17E-13  7.11E-13  5.66E-12
   5.79E-12  1.04E-12  3.17E-12  2.22E-12  1.11E-12  1.63E-12  1.28E-12  1.62E-12
   2.13E-12  7.01E-12  1.39E-12  1.36E-12  4.90E-12  3.87E-12
   0.4375  0.4375  0.5000    1  1.49055E-11 kpt; spin; max resid(k); each band:
   6.88E-13  3.28E-13  8.49E-13  4.05E-13  3.65E-15  7.76E-12  1.37E-11  1.26E-12
   1.22E-11  2.63E-12  1.44E-11  9.14E-12  7.73E-12  1.49E-11  1.42E-11  5.26E-13
   5.38E-13  3.59E-13  5.11E-13  5.67E-13  2.27E-13  3.75E-13  1.88E-13  2.34E-14
   1.38E-14  6.38E-14  1.01E-14  8.55E-13  4.12E-13  4.06E-13  5.81E-13  6.07E-12
   6.18E-12  8.39E-13  3.45E-12  2.08E-12  8.60E-13  1.60E-12  1.12E-12  1.18E-12
   8.32E-13  1.07E-12  7.55E-12  1.29E-12  5.10E-12  3.05E-12

   outwf: writing wavefunctions to: Cs2TiI6o_WFK with iomode: IO_MODE_FORTRAN_MASTER
 prteigrs : about to open file Cs2TiI6o_EIG
 Fermi (or HOMO) energy (hartree) =   0.06931   Average Vxc (hartree)=  -0.25598
 Eigenvalues (hartree) for nkpt=  10  k points:
 kpt#   1, nband= 46, wtk=  0.06250, kpt=  0.0625  0.0625  0.5000 (reduced coord)
  -1.74982   -1.74768   -1.74685   -1.74593   -1.74537   -1.72410   -1.72274   -1.72210
  -1.72122   -1.72118   -1.72118   -1.72001   -1.71919   -1.71832   -1.71751   -0.73853
  -0.73813   -0.73625   -0.73603   -0.73582   -0.73577   -0.73573   -0.73562   -0.73550
  -0.73528   -0.72985   -0.72974   -0.72973   -0.72787   -0.72778   -0.48310   -0.44294
  -0.42270   -0.19143   -0.18594   -0.12992   -0.11471   -0.09394   -0.07644   -0.05578
  -0.04070   -0.03133   -0.01754    0.00093    0.00983    0.14125
 kpt#   2, nband= 46, wtk=  0.12500, kpt=  0.1875  0.0625  0.5000 (reduced coord)
  -1.74879   -1.74648   -1.74570   -1.74444   -1.74327   -1.72196   -1.72159   -1.72109
  -1.72070   -1.71926   -1.71901   -1.71806   -1.71773   -1.71718   -1.71684   -0.73815
  -0.73787   -0.73596   -0.73587   -0.73572   -0.73559   -0.73551   -0.73532   -0.73522
  -0.73497   -0.72968   -0.72962   -0.72931   -0.72770   -0.72761   -0.47733   -0.43851
  -0.42215   -0.20811   -0.20591   -0.15762   -0.11421   -0.09225   -0.05470   -0.05167
  -0.02963   -0.02722    0.00038    0.01560    0.02739    0.12886
 kpt#   3, nband= 46, wtk=  0.12500, kpt=  0.3125  0.0625  0.5000 (reduced coord)
  -1.74616   -1.74562   -1.74445   -1.74259   -1.74136   -1.72043   -1.71981   -1.71823
  -1.71792   -1.71775   -1.71765   -1.71698   -1.71688   -1.71601   -1.71568   -0.73754
  -0.73725   -0.73594   -0.73583   -0.73561   -0.73550   -0.73519   -0.73503   -0.73482
  -0.73457   -0.72944   -0.72921   -0.72861   -0.72771   -0.72752   -0.46728   -0.43148
  -0.42304   -0.23081   -0.22757   -0.19039   -0.10372   -0.07625   -0.04544   -0.03181
  -0.03007   -0.02057    0.02296    0.03579    0.05508    0.09985
 kpt#   4, nband= 46, wtk=  0.12500, kpt=  0.4375  0.0625  0.5000 (reduced coord)
  -1.74754   -1.74711   -1.74581   -1.74489   -1.74384   -1.72297   -1.72181   -1.72079
  -1.72049   -1.71965   -1.71939   -1.71839   -1.71805   -1.71790   -1.71626   -0.73768
  -0.73733   -0.73633   -0.73601   -0.73592   -0.73568   -0.73565   -0.73534   -0.73526
  -0.73481   -0.72981   -0.72939   -0.72896   -0.72808   -0.72767   -0.45738   -0.42659
  -0.42566   -0.24704   -0.23655   -0.21384   -0.08477   -0.06106   -0.05291   -0.02755
  -0.02091   -0.01058    0.04185    0.05308    0.06931    0.08789
 kpt#   5, nband= 46, wtk=  0.06250, kpt=  0.1875  0.1875  0.5000 (reduced coord)
  -1.74846   -1.74754   -1.74526   -1.74405   -1.74275   -1.72247   -1.72192   -1.72175
  -1.72164   -1.71993   -1.71941   -1.71842   -1.71701   -1.71670   -1.71507   -0.73788
  -0.73761   -0.73636   -0.73600   -0.73571   -0.73561   -0.73543   -0.73540   -0.73505
  -0.73503   -0.72998   -0.72943   -0.72894   -0.72791   -0.72768   -0.47176   -0.43417
  -0.42110   -0.21408   -0.21056   -0.16782   -0.11862   -0.10767   -0.07930   -0.05077
  -0.02781   -0.02601    0.02511    0.04099    0.04349    0.11780
 kpt#   6, nband= 46, wtk=  0.12500, kpt=  0.3125  0.1875  0.5000 (reduced coord)
  -1.74611   -1.74601   -1.74520   -1.74446   -1.74101   -1.72223   -1.72163   -1.71963
  -1.71903   -1.71853   -1.71787   -1.71735   -1.71625   -1.71546   -1.71482   -0.73743
  -0.73713   -0.73614   -0.73613   -0.73590   -0.73565   -0.73540   -0.73529   -0.73471
  -0.73445   -0.73004   -0.72895   -0.72861   -0.72775   -0.72763   -0.46225   -0.42737
  -0.42085   -0.22725   -0.22078   -0.18789   -0.11948   -0.09795   -0.07997   -0.05417
  -0.03964   -0.02575    0.02169    0.03571    0.05029    0.11012
 kpt#   7, nband= 46, wtk=  0.12500, kpt=  0.4375  0.1875  0.5000 (reduced coord)
  -1.74711   -1.74697   -1.74608   -1.74483   -1.74330   -1.72249   -1.72216   -1.72071
  -1.72040   -1.71944   -1.71890   -1.71845   -1.71762   -1.71724   -1.71535   -0.73753
  -0.73726   -0.73636   -0.73614   -0.73597   -0.73583   -0.73565   -0.73552   -0.73492
  -0.73467   -0.73011   -0.72920   -0.72871   -0.72804   -0.72771   -0.45330   -0.42285
  -0.42181   -0.23891   -0.22762   -0.20562   -0.09943   -0.08354   -0.06832   -0.06604
  -0.05897   -0.02582    0.00589    0.01088    0.04633    0.09939
 kpt#   8, nband= 46, wtk=  0.06250, kpt=  0.3125  0.3125  0.5000 (reduced coord)
  -1.74714   -1.74704   -1.74665   -1.74571   -1.74145   -1.72301   -1.72242   -1.72193
  -1.72022   -1.72016   -1.71936   -1.71801   -1.71791   -1.71738   -1.71669   -0.73753
  -0.73719   -0.73649   -0.73639   -0.73619   -0.73614   -0.73591   -0.73577   -0.73455
  -0.73428   -0.73060   -0.72886   -0.72860   -0.72807   -0.72797   -0.45408   -0.42105
  -0.41823   -0.22406   -0.21234   -0.18691   -0.14591   -0.10574   -0.08582   -0.07407
  -0.06170   -0.05172   -0.00403   -0.00116    0.03742    0.11660
 kpt#   9, nband= 46, wtk=  0.12500, kpt=  0.4375  0.3125  0.5000 (reduced coord)
  -1.74701   -1.74622   -1.74607   -1.74420   -1.74332   -1.72283   -1.72223   -1.72140
  -1.72096   -1.71902   -1.71884   -1.71767   -1.71691   -1.71644   -1.71539   -0.73729
  -0.73702   -0.73658   -0.73642   -0.73617   -0.73593   -0.73577   -0.73553   -0.73474
  -0.73448   -0.73052   -0.72882   -0.72859   -0.72797   -0.72785   -0.44710   -0.41725
  -0.41600   -0.22438   -0.21104   -0.19030   -0.13920   -0.10681   -0.10492   -0.08602
  -0.06586   -0.06240   -0.03552   -0.02910    0.03842    0.11211
 kpt#  10, nband= 46, wtk=  0.06250, kpt=  0.4375  0.4375  0.5000 (reduced coord)
  -1.74610   -1.74514   -1.74469   -1.74384   -1.74292   -1.72140   -1.72082   -1.72027
  -1.71958   -1.71958   -1.71852   -1.71747   -1.71650   -1.71607   -1.71452   -0.73717
  -0.73669   -0.73654   -0.73637   -0.73603   -0.73593   -0.73570   -0.73560   -0.73450
  -0.73424   -0.73087   -0.72854   -0.72835   -0.72792   -0.72770   -0.44232   -0.41304
  -0.41157   -0.20997   -0.19290   -0.17080   -0.16203   -0.13801   -0.12150   -0.11123
  -0.08849   -0.07383   -0.05857   -0.03889    0.03999    0.12128
 Total charge density [el/Bohr^3]
      Maximum=    2.2131E+00  at reduced coord.    0.0000    0.5000    0.2917
 Next maximum=    2.2118E+00  at reduced coord.    0.9722    0.5278    0.7083
      Minimum=    5.9971E-06  at reduced coord.    0.1111    0.3889    0.0083
 Next minimum=    5.9971E-06  at reduced coord.    0.8889    0.3889    0.0083
   Integrated=    9.0000E+01

 Cartesian components of stress tensor (hartree/bohr^3)
  sigma(1 1)=  1.02075840E-02  sigma(3 2)=  0.00000000E+00
  sigma(2 2)=  1.02075840E-02  sigma(3 1)=  0.00000000E+00
  sigma(3 3)=  1.01037691E-02  sigma(2 1)=  0.00000000E+00

-Cartesian components of stress tensor (GPa)         [Pressure= -2.9930E+02 GPa]
- sigma(1 1)=  3.00317440E+02  sigma(3 2)=  0.00000000E+00
- sigma(2 2)=  3.00317440E+02  sigma(3 1)=  0.00000000E+00
- sigma(3 3)=  2.97263099E+02  sigma(2 1)=  0.00000000E+00

== END DATASET(S) ==============================================================

 -outvars: echo values of variables after computation  --------

 These variables are accessible in NetCDF format (Cs2TiI6o_OUT.nc)

            acell      7.7624316804E+00  7.7624316804E+00  7.7624316804E+00 Bohr
              amu      1.18710000E+02  7.89600000E+01
           diemac      1.20000000E+01
             ecut      2.25000000E+01 Hartree
           etotal     -5.9681275702E+02
            fcart     -0.0000000000E+00 -0.0000000000E+00 -1.4787300039E-02
                      -0.0000000000E+00 -0.0000000000E+00 -1.3867025862E-03
                      -0.0000000000E+00 -0.0000000000E+00  1.5954169621E-02
                      -0.0000000000E+00 -0.0000000000E+00 -1.6810355289E-02
                      -0.0000000000E+00 -0.0000000000E+00  1.5671396106E-03
                      -0.0000000000E+00 -0.0000000000E+00  1.5463048683E-02
-          fftalg         112
             iscf          17
              ixc          11
              kpt      6.25000000E-02  6.25000000E-02  5.00000000E-01
                       1.87500000E-01  6.25000000E-02  5.00000000E-01
                       3.12500000E-01  6.25000000E-02  5.00000000E-01
                       4.37500000E-01  6.25000000E-02  5.00000000E-01
                       1.87500000E-01  1.87500000E-01  5.00000000E-01
                       3.12500000E-01  1.87500000E-01  5.00000000E-01
                       4.37500000E-01  1.87500000E-01  5.00000000E-01
                       3.12500000E-01  3.12500000E-01  5.00000000E-01
                       4.37500000E-01  3.12500000E-01  5.00000000E-01
                       4.37500000E-01  4.37500000E-01  5.00000000E-01
         kptrlatt        8    0    0      0    8    0      0    0    1
          kptrlen      6.20994534E+01
P           mkmem           2
            natom           6
            nband          46
            ngfft          36      36     120
             nkpt          10
            nstep         150
             nsym           8
           ntypat           2
              occ      2.000000  2.000000  2.000000  2.000000  2.000000  2.000000
                       2.000000  2.000000  2.000000  2.000000  2.000000  2.000000
                       2.000000  2.000000  2.000000  2.000000  2.000000  2.000000
                       2.000000  2.000000  2.000000  2.000000  2.000000  2.000000
                       2.000000  2.000000  2.000000  2.000000  2.000000  2.000000
                       2.000000  2.000000  2.000000  2.000000  2.000000  2.000000
                       2.000000  2.000000  2.000000  2.000000  2.000000  2.000000
                       2.000000  2.000000  2.000000  0.000000
           prtcif           1
            rprim      1.0000000000E+00  0.0000000000E+00  0.0000000000E+00
                       0.0000000000E+00  1.0000000000E+00  0.0000000000E+00
                       0.0000000000E+00  0.0000000000E+00  3.6030921912E+00
           shiftk      5.00000000E-01  5.00000000E-01  5.00000000E-01
          spgroup          99
           strten      1.0207584018E-02  1.0207584018E-02  1.0103769077E-02
                       0.0000000000E+00  0.0000000000E+00  0.0000000000E+00
           symrel      1  0  0   0  1  0   0  0  1       1  0  0   0 -1  0   0  0  1
                      -1  0  0   0 -1  0   0  0  1      -1  0  0   0  1  0   0  0  1
                       0  1  0   1  0  0   0  0  1       0  1  0  -1  0  0   0  0  1
                       0 -1  0  -1  0  0   0  0  1       0 -1  0   1  0  0   0  0  1
            tnons      0.0000000  0.0000000  0.0000000     0.0000000  0.0000000  0.0000000
                      -0.0000000  0.0000000  0.0000000    -0.0000000  0.0000000  0.0000000
                       0.5000000  0.5000000  0.0000000     0.5000000  0.5000000  0.0000000
                       0.5000000  0.5000000  0.0000000     0.5000000  0.5000000  0.0000000
           toldfe      1.00000000E-06 Hartree
            typat      1  1  1  2  2  2
           vdw_xc           5
              wtk        0.06250    0.12500    0.12500    0.12500    0.06250    0.12500
                         0.12500    0.06250    0.12500    0.06250
           xangst      2.0538509643E+00  0.0000000000E+00  4.6664715795E+00
                       0.0000000000E+00  2.0538509643E+00  7.4160952313E+00
                       2.0538509643E+00  0.0000000000E+00  1.0102195443E+01
                       0.0000000000E+00  2.0538509643E+00  4.6982332996E+00
                       2.0538509643E+00  0.0000000000E+00  7.3843335112E+00
                       0.0000000000E+00  2.0538509643E+00  1.0133957163E+01
            xcart      3.8812158402E+00  0.0000000000E+00  8.8183532921E+00
                       0.0000000000E+00  3.8812158402E+00  1.4014388962E+01
                       3.8812158402E+00  0.0000000000E+00  1.9090382728E+01
                       0.0000000000E+00  3.8812158402E+00  8.8783742446E+00
                       3.8812158402E+00  0.0000000000E+00  1.3954368010E+01
                       0.0000000000E+00  3.8812158402E+00  1.9150403680E+01
             xred      5.0000000000E-01  0.0000000000E+00  3.1529300000E-01
                       0.0000000000E+00  5.0000000000E-01  5.0107300000E-01
                       5.0000000000E-01  0.0000000000E+00  6.8256100000E-01
                       0.0000000000E+00  5.0000000000E-01  3.1743900000E-01
                       5.0000000000E-01  0.0000000000E+00  4.9892700000E-01
                       0.0000000000E+00  5.0000000000E-01  6.8470700000E-01
            znucl       50.00000   34.00000

 Suggested references for the acknowledgment of ABINIT usage.

 Calculation completed.
.Delivered   0 WARNINGs and   0 COMMENTs to log file.

--- !FinalSummary
program: abinit
version: 9.2.2
start_datetime: Sat Feb 24 15:20:34 2024
end_datetime: Sat Feb 24 15:21:58 2024
overall_cpu_time:         503.4
overall_wall_time:         503.7
exit_requested_by_user: no
timelimit: 0
pseudos:
    Sn  : c918e999fc214fef37654f9ff7d5f03d
    Se  : f801923bd422df98a30264e8ccc86374
usepaw: 0
mpi_procs: 6
omp_threads: 1
num_warnings: 0
num_comments: 0
...